 vasp.6.2.0 18Jan21 (build Mar 03 2021 13:27:41) complex

 executed on             LinuxIFC date 2021.06.29  17:45:47

 INCAR:
   SYSTEM = TiO2-rutile
   ISMEAR = 0
   SIGMA = 0.05
   EDIFF = 1E-5
   ALGO = Fast
   ISTART = 1
   ISYM = 0
   IBRION = -1
   NSW = 0
   EDIFFG = -0.01
   ENCUT = 500
   PREC = Accurate
   LASPH = .TRUE.
   LREAL = Auto
   ISPIN = 1
   NELM = 500
   NELMIN = 4
   NCORE = 20
   LWAVE = .FALSE.
   LCHARG = .FALSE.
   LORBIT = 11

 POTCAR:    PAW Ti_sv 26Sep2005
 POTCAR:    PAW O 22Mar2012
|           W    W    AA    RRRRR   N    N  II  N    N   GGGG   !!!           |
|           W    W   A  A   R    R  NN   N  II  NN   N  G    G  !!!           |
|           W    W  A    A  R    R  N N  N  II  N N  N  G       !!!           |
|           W WW W  AAAAAA  RRRRR   N  N N  II  N  N N  G  GGG   !            |
|           WW  WW  A    A  R   R   N   NN  II  N   NN  G    G                |
|           W    W  A    A  R    R  N    N  II  N    N   GGGG   !!!           |
|     For optimal performance we recommend to set                             |
|       NCORE = 2 up to number-of-cores-per-socket                            |
|     This setting can greatly improve the performance of VASP for DFT.       |
|     The default, NCORE=1 might be grossly inefficient on modern             |
|     multi-core architectures or massively parallel machines. Do your        |
|     Unfortunately you need to use the default for GW and RPA                |
|     calculations (for HF NCORE is supported but not extensively tested      |
|     yet).                                                                   |

   TITEL  = PAW Ti_sv 26Sep2005
   POMASS =   47.880; ZVAL   =   12.000    mass and valenz
   ENMAX  =  274.719; ENMIN  =  206.039 eV

   TITEL  = PAW O 22Mar2012
   POMASS =   16.000; ZVAL   =    6.000    mass and valenz
   ENMAX  =  400.000; ENMIN  =  300.000 eV

 Optimization of the real space projectors (new method)

 maximal supplied QI-value         = 16.25
 optimisation between [QCUT,QGAM] = [ 11.38, 22.75] = [ 36.24,144.96] Ry
 Optimized for a Real-space Cutoff    1.27 Angstroem

   l    n(q)    QCUT    max X(q) W(low)/X(q) W(high)/X(q)  e(spline)
   0      9    11.376    12.197    0.54E-04    0.21E-04    0.24E-07
   0      9    11.376    11.139    0.92E-04    0.47E-05    0.33E-07
   1      8    11.376     4.011    0.10E-03    0.98E-04    0.29E-07
   1      8    11.376     6.084    0.81E-04    0.18E-03    0.11E-06
   2      8    11.376    46.184    0.13E-03    0.88E-03    0.24E-06
   2      8    11.376    41.673    0.13E-03    0.85E-03    0.23E-06
 Optimization of the real space projectors (new method)

 maximal supplied QI-value         = 24.76
 optimisation between [QCUT,QGAM] = [ 11.39, 22.77] = [ 36.31,145.25] Ry
 Optimized for a Real-space Cutoff    1.10 Angstroem

   l    n(q)    QCUT    max X(q) W(low)/X(q) W(high)/X(q)  e(spline)
   0      7    11.387    20.659    0.22E-03    0.50E-03    0.19E-06
   0      7    11.387    15.633    0.22E-03    0.53E-03    0.20E-06
   1      7    11.387     5.864    0.22E-03    0.73E-03    0.24E-06
   1      7    11.387     5.285    0.18E-03    0.60E-03    0.21E-06
  PAW Ti_sv 26Sep2005                   :
  PAW O 22Mar2012                       :

 POSCAR: Ti  O
  positions in direct lattice
 exchange correlation table for  LEXCH =        2
   RHO(1)=    0.500       N(1)  =     2000
   RHO(2)=  100.500       N(2)  =     4000

 ion  position               nearest neighbor table
   1  0.500  0.125  0.288-  84 1.93 104 1.93 103 1.93  83 1.93  81 1.96  82 1.96
   2  0.750  0.000  0.288-  82 1.93 141 1.93 160 1.93 220 1.93  87 1.96
   3  0.750  0.125  0.394-  87 1.93 107 1.93  88 1.93 108 1.93  85 1.96 165 1.96
   4  0.500  0.000  0.394-  85 1.93  86 1.93 144 1.93 145 1.93  84 1.96  91 1.96
   5  0.500  0.125  0.500-  91 1.93  92 1.93 111 1.93 112 1.93  89 1.96  90 1.96
   6  0.750  0.000  0.500-  90 1.93 149 1.93 168 1.93 228 1.93  88 1.96  95 1.97
   7  0.750  0.125  0.604-  95 1.88 115 1.88 173 1.93  93 1.93 195 1.99 175 1.99
   8  0.500  0.000  0.609-  99 1.85  93 1.95  94 1.95 152 1.95 153 1.95  92 2.07
   9  0.500  0.125  0.718- 120 1.81 100 1.81  98 2.01  97 2.01 119 2.07  99 2.07
  10  0.250  0.000  0.707-  96 1.80  97 1.92 177 1.92 156 1.92 237 1.92
  11  0.500  0.375  0.288- 104 1.93 124 1.93 123 1.93 103 1.93 101 1.96 102 1.96
  12  0.750  0.250  0.288-  82 1.93 102 1.93 160 1.93 180 1.93 107 1.96
  13  0.750  0.375  0.394- 107 1.93 127 1.93 108 1.93 128 1.93 105 1.96 185 1.96
  14  0.500  0.250  0.394-  85 1.93  86 1.93 105 1.93 106 1.93 104 1.96 111 1.96
  15  0.500  0.375  0.500- 111 1.93 112 1.93 131 1.93 132 1.93 109 1.96 110 1.96
  16  0.750  0.250  0.500-  90 1.93 110 1.93 168 1.93 188 1.93 108 1.96 115 1.97
  17  0.750  0.375  0.604- 135 1.88 115 1.88 113 1.93 193 1.93 195 1.99 215 1.99
  18  0.500  0.250  0.610- 119 1.85 114 1.95 113 1.95  94 1.95  93 1.95 112 2.07
  19  0.500  0.375  0.718- 120 1.81 117 2.01 118 2.01 119 2.07 139 2.07
  20  0.250  0.250  0.707- 116 1.80  97 1.92 177 1.92 117 1.92 197 1.92
  21  0.500  0.625  0.288- 124 1.93 143 1.93 142 1.93 123 1.93 121 1.96 122 1.96
  22  0.750  0.500  0.288- 102 1.93 122 1.93 180 1.93 200 1.93 127 1.96
  23  0.750  0.625  0.394- 127 1.93 146 1.93 128 1.93 147 1.93 125 1.96 205 1.96
  24  0.500  0.500  0.394- 105 1.93 106 1.93 125 1.93 126 1.93 124 1.96 131 1.96
  25  0.500  0.625  0.500- 131 1.93 132 1.93 150 1.93 151 1.93 129 1.96 130 1.96
  26  0.750  0.500  0.500- 110 1.93 130 1.93 188 1.93 208 1.93 128 1.96 135 1.97
  27  0.750  0.625  0.604- 135 1.88 154 1.88 133 1.93 213 1.93 235 1.99 215 1.99
  28  0.500  0.500  0.609- 139 1.85 133 1.95 134 1.95 114 1.95 113 1.95 132 2.07
  29  0.500  0.625  0.718- 159 1.81 138 2.01 137 2.01 158 2.07 139 2.07
  30  0.250  0.500  0.707- 136 1.80 217 1.92 137 1.92 197 1.92 117 1.92
  31  0.500  0.875  0.288-  84 1.93 143 1.93 142 1.93  83 1.93 140 1.96 141 1.96
  32  0.750  0.750  0.288- 122 1.93 141 1.93 200 1.93 220 1.93 146 1.96
  33  0.750  0.875  0.394-  87 1.93 146 1.93  88 1.93 147 1.93 144 1.96 225 1.96
  34  0.500  0.750  0.394- 125 1.93 126 1.93 144 1.93 145 1.93 143 1.96 150 1.96
  35  0.500  0.875  0.500-  91 1.93  92 1.93 150 1.93 151 1.93 148 1.96 149 1.96
  36  0.750  0.750  0.500- 130 1.93 149 1.93 208 1.93 228 1.93 147 1.96 154 1.97
  37  0.750  0.875  0.604-  95 1.88 154 1.88 233 1.93 152 1.93 235 1.99 175 1.99
  38  0.500  0.750  0.610- 158 1.85 152 1.95 153 1.95 133 1.95 134 1.95 151 2.07
  39  0.500  0.875  0.718- 159 1.81 100 1.81 156 2.01 157 2.01 158 2.07  99 2.07
  40  0.250  0.750  0.707- 155 1.80 217 1.92 137 1.92 237 1.92 156 1.92
  41  0.000  0.125  0.288- 163 1.93 183 1.93 182 1.93 162 1.93 160 1.96 161 1.96
  42  0.250  0.000  0.288-  81 1.93 140 1.93 161 1.93 221 1.93 166 1.96
  43  0.250  0.125  0.394- 166 1.93 186 1.93 167 1.93 187 1.93  86 1.96 164 1.96
  44  0.000  0.000  0.394- 164 1.93 165 1.93 224 1.93 225 1.93 163 1.96 170 1.96
  45  0.000  0.125  0.500- 170 1.93 171 1.93 190 1.93 191 1.93 168 1.96 169 1.96
  46  0.250  0.000  0.500-  89 1.93 148 1.93 169 1.93 229 1.93 167 1.96 174 1.97
  47  0.250  0.125  0.604- 174 1.88 194 1.88 172 1.93  94 1.93 116 1.99  96 1.99
  48  1.000  0.000  0.609- 178 1.85 173 1.95 172 1.95 233 1.95 232 1.95 171 2.07
  49  1.000  0.125  0.718- 199 1.81 179 1.81 176 2.01 177 2.01 198 2.07 178 2.07
  50  0.750  1.000  0.707- 175 1.80 236 1.92 157 1.92  98 1.92 176 1.92
  51  0.000  0.375  0.288- 183 1.93 203 1.93 202 1.93 182 1.93 180 1.96 181 1.96
  52  0.250  0.250  0.288-  81 1.93 101 1.93 161 1.93 181 1.93 186 1.96
  53  0.250  0.375  0.394- 186 1.93 206 1.93 187 1.93 207 1.93 106 1.96 184 1.96
  54  0.000  0.250  0.394- 164 1.93 165 1.93 184 1.93 185 1.93 183 1.96 190 1.96
  55  0.000  0.375  0.500- 190 1.93 191 1.93 210 1.93 211 1.93 188 1.96 189 1.96
  56  0.250  0.250  0.500-  89 1.93 109 1.93 169 1.93 189 1.93 187 1.96 194 1.97
  57  0.250  0.375  0.604- 214 1.88 194 1.88 192 1.93 114 1.93 116 1.99 136 1.99
  58  1.000  0.250  0.610- 198 1.85 193 1.95 192 1.95 173 1.95 172 1.95 191 2.07
  59  0.000  0.375  0.718- 199 1.81 219 1.81 197 2.01 196 2.01 198 2.07 218 2.07
  60  0.750  0.250  0.707- 195 1.80 118 1.92 196 1.92  98 1.92 176 1.92
[...]
 225  0.902  0.875  0.394-  44 1.93  74 1.93  33 1.96
 226  0.250  0.750  0.353-  63 1.93  73 1.93  72 1.96
 227  0.250  0.750  0.436-  63 1.93  73 1.93  76 1.96
 228  0.848  0.875  0.500-   6 1.93  36 1.93  75 1.96
 229  0.152  0.875  0.500-  46 1.93  76 1.93  75 1.96
 230  0.000  0.750  0.458-  65 1.93  75 1.93  74 1.96
 231  0.000  0.750  0.542-  65 1.93  75 1.93  78 2.07
 232  0.100  0.875  0.606-  77 1.93  78 1.95  48 1.95
 233  0.900  0.875  0.606-  37 1.93  78 1.95  48 1.95
 234  0.250  0.750  0.565-  67 1.88  77 1.88  76 1.97
 235  0.750  0.750  0.648-  80 1.80  27 1.99  37 1.99
 236  0.844  0.875  0.717-  50 1.92  80 1.92  79 2.01
 237  0.156  0.875  0.717-  10 1.92  40 1.92  79 2.01
 238  0.000  0.750  0.670-  78 1.85  69 2.07  79 2.07
 239  0.000  0.750  0.754-  69 1.81  79 1.81

IMPORTANT INFORMATION: All symmetrisations will be switched off!
NOSYMM: (Re-)initialisation of all symmetry stuff for point group C_1.

                                     Primitive cell

  volume of cell :    4576.1066

  direct lattice vectors                    reciprocal lattice vectors
    12.878382581  0.000000000  0.000000000     0.077649502  0.000000000  0.000000000
     0.000000000 11.686844333  0.000000000     0.000000000  0.085566298  0.000000000
     0.000000000  0.000000000 30.404478239     0.000000000  0.000000000  0.032889892

  length of vectors
    12.878382581 11.686844333 30.404478239     0.077649502  0.085566298  0.032889892

  position of ions in fractional coordinates (direct lattice)
     0.500000000  0.125000000  0.288215695
     0.750000000  0.000000000  0.288215695
     0.750000000  0.125000000  0.394107848
     0.500000000  0.000000000  0.394107848
     0.500000000  0.125000000  0.500000000
     0.750000000  0.000000000  0.500000000
     0.750000524  0.124979075  0.603783289
     0.500000410  0.000004816  0.609498042
     0.500019249  0.125018214  0.718434994
     0.250000153  0.000008486  0.707191909
     0.500000000  0.375000000  0.288215695
     0.750000000  0.250000000  0.288215695
     0.750000000  0.375000000  0.394107848
     0.500000000  0.250000000  0.394107848
     0.500000000  0.375000000  0.500000000
     0.750000000  0.250000000  0.500000000
     0.750000082  0.375020054  0.603783178
     0.500000102  0.250002270  0.609507839
     0.499980608  0.374986477  0.718436681
     0.249999606  0.249994276  0.707127867
     0.500000000  0.625000000  0.288215695
     0.750000000  0.500000000  0.288215695
     0.750000000  0.625000000  0.394107848
     0.500000000  0.500000000  0.394107848
     0.500000000  0.625000000  0.500000000
     0.750000000  0.500000000  0.500000000
     0.749999459  0.624980065  0.603783634
     0.500000088  0.500004046  0.609498122
     0.500002480  0.625020550  0.718435554
     0.249997091  0.500004648  0.707191803
     0.500000000  0.875000000  0.288215695
     0.750000000  0.750000000  0.288215695
     0.750000000  0.875000000  0.394107848
[...]
   -.499E-04 0.635E-04 0.257E+04   0.216E-04 -.400E-04 -.258E+04   0.292E-04 -.233E-04 0.428E+00   0.567E-05 -.172E-05 -.214E-02
   -.583E-03 0.137E+01 -.494E+02   0.600E-03 -.136E+01 0.500E+02   -.288E-04 0.194E-02 -.172E+00   0.189E-05 0.151E-03 -.431E-02
   0.247E+01 -.221E-02 -.295E+02   -.245E+01 0.216E-02 0.281E+02   -.805E-02 0.748E-04 0.558E+00   0.546E-03 -.132E-05 -.392E-02
   0.124E+02 0.563E+01 -.259E+04   -.122E+02 -.557E+01 0.259E+04   -.493E-01 -.223E-01 0.869E+00   0.185E-02 0.441E-03 -.563E-02
   -.408E-02 0.285E-01 -.271E+04   0.372E-02 -.288E-01 0.271E+04   -.825E-04 -.529E-03 -.578E+00   0.226E-03 -.464E-04 -.881E-02
   -.858E-02 0.256E+03 -.531E+04   0.942E-02 -.251E+03 0.531E+04   -.806E-03 -.272E+01 0.245E+01   0.158E-04 0.795E-02 -.369E-02
   -.701E+02 0.368E-01 -.517E+04   0.693E+02 -.364E-01 0.517E+04   0.380E+00 -.678E-03 0.303E+01   -.667E-02 0.153E-04 -.280E-02
   -.468E-05 0.438E-01 0.512E+04   0.770E-06 -.440E-01 -.512E+04   -.104E-04 0.189E-01 0.113E+01   -.233E-05 -.657E-05 0.837E-03
   0.120E+00 0.565E-01 0.534E+04   -.118E+00 -.568E-01 -.533E+04   -.443E-03 0.165E-04 -.561E+01   0.215E-04 -.283E-05 0.160E-02
   0.401E+00 0.171E+00 0.259E+04   -.395E+00 -.173E+00 -.258E+04   -.178E-02 0.198E-01 -.110E+00   0.113E-03 0.907E-05 -.252E-02
   -.717E-04 0.289E+00 0.257E+04   0.241E-04 -.292E+00 -.258E+04   -.737E-05 0.868E-03 0.412E+00   0.191E-04 0.290E-04 -.209E-02
   -.283E-04 0.128E+01 -.465E+02   -.263E-05 -.128E+01 0.471E+02   -.229E-04 -.101E-01 -.183E+00   0.176E-04 0.217E-03 -.403E-02
   0.203E+01 0.136E+01 -.282E+02   -.200E+01 -.136E+01 0.268E+02   -.638E-02 -.426E-03 0.553E+00   0.472E-03 0.109E-03 -.378E-02
   0.652E+01 0.437E+01 -.258E+04   -.638E+01 -.433E+01 0.258E+04   -.348E-01 -.643E-02 0.839E+00   0.117E-02 0.445E-03 -.469E-02
   -.642E-02 0.140E+02 -.269E+04   0.603E-02 -.140E+02 0.269E+04   -.122E-03 0.217E-01 -.622E+00   0.222E-03 0.137E-02 -.666E-02
   -.228E-01 0.327E+02 -.513E+04   0.221E-01 -.321E+02 0.513E+04   -.849E-04 -.120E+00 -.129E+01   0.224E-04 0.426E-02 -.117E-02
   -.298E+02 0.248E+02 -.515E+04   0.293E+02 -.244E+02 0.515E+04   0.187E+00 -.142E+00 0.279E+01   -.358E-02 0.205E-02 -.201E-02
   -.256E-04 -.366E-01 0.512E+04   0.257E-05 0.364E-01 -.512E+04   -.106E-04 -.188E-01 0.113E+01   0.412E-04 0.363E-04 0.873E-03
   -.115E+00 -.227E-04 0.534E+04   0.113E+00 -.652E-05 -.533E+04   0.443E-03 -.387E-06 -.561E+01   -.279E-04 0.239E-04 0.162E-02
   -.402E+00 -.171E+00 0.259E+04   0.395E+00 0.173E+00 -.258E+04   0.169E-02 -.197E-01 -.110E+00   -.108E-03 -.190E-04 -.249E-02
   -.382E-04 0.968E-04 0.258E+04   0.633E-04 -.108E-03 -.258E+04   0.400E-04 0.367E-04 0.419E+00   -.145E-04 0.113E-04 -.185E-02
   -.683E-03 -.641E+00 -.433E+02   0.653E-03 0.641E+00 0.440E+02   0.117E-04 0.596E-02 -.202E+00   0.301E-05 -.401E-04 -.353E-02
   -.161E+01 -.741E-03 -.268E+02   0.159E+01 0.661E-03 0.255E+02   0.666E-02 0.102E-03 0.550E+00   -.369E-03 0.222E-04 -.370E-02
   -.651E+01 -.433E+01 -.258E+04   0.637E+01 0.428E+01 0.258E+04   0.345E-01 0.640E-02 0.838E+00   -.116E-02 -.453E-03 -.427E-02
   -.805E-02 0.139E-01 -.266E+04   0.832E-02 -.139E-01 0.266E+04   0.448E-04 -.341E-03 -.872E+00   -.112E-03 0.851E-05 -.371E-02
   -.220E-01 -.464E+01 -.512E+04   0.217E-01 0.462E+01 0.512E+04   0.798E-03 0.825E-02 -.139E+01   0.797E-05 -.420E-03 -.127E-02
   0.120E+02 -.294E-01 -.515E+04   -.118E+02 0.293E-01 0.514E+04   -.551E-01 0.687E-03 0.282E+01   0.175E-02 0.296E-04 -.184E-02
   -.473E-04 -.361E-01 0.512E+04   -.855E-06 0.364E-01 -.512E+04   -.120E-04 0.188E-01 0.113E+01   0.614E-04 0.169E-05 0.844E-03
   -.120E+00 -.564E-01 0.534E+04   0.118E+00 0.568E-01 -.533E+04   0.422E-03 -.146E-03 -.561E+01   -.229E-04 0.356E-04 0.158E-02
   -.460E+00 -.174E+00 0.259E+04   0.454E+00 0.174E+00 -.258E+04   0.154E-02 0.197E-01 -.110E+00   -.119E-03 -.293E-04 -.259E-02
   -.134E-04 -.199E+00 0.258E+04   0.374E-04 0.200E+00 -.258E+04   -.380E-04 -.330E-03 0.405E+00   0.864E-05 -.234E-04 -.188E-02
   -.425E-03 -.653E+00 -.444E+02   0.371E-03 0.648E+00 0.451E+02   0.184E-04 -.462E-02 -.200E+00   0.104E-04 -.683E-04 -.359E-02
   -.203E+01 -.135E+01 -.282E+02   0.200E+01 0.135E+01 0.268E+02   0.637E-02 0.511E-03 0.553E+00   -.472E-03 -.152E-03 -.380E-02
   -.124E+02 -.565E+01 -.259E+04   0.122E+02 0.559E+01 0.259E+04   0.494E-01 0.223E-01 0.869E+00   -.181E-02 -.423E-03 -.521E-02
   -.502E-03 -.349E+01 -.267E+04   0.641E-03 0.345E+01 0.267E+04   0.384E-04 0.840E-02 -.857E+00   -.124E-03 -.255E-03 -.384E-02
   0.277E-01 -.588E+01 -.513E+04   -.275E-01 0.586E+01 0.513E+04   0.226E-03 -.791E-02 -.139E+01   -.928E-05 -.418E-03 -.137E-02
   0.298E+02 -.248E+02 -.515E+04   -.293E+02 0.244E+02 0.515E+04   -.187E+00 0.142E+00 0.279E+01   0.361E-02 -.195E-02 -.231E-02
[...]
   -.121E+00 0.635E-01 0.187E+04   0.119E+00 -.639E-01 -.188E+04   0.234E-02 0.957E-03 0.113E+01   -.367E-04 -.295E-04 -.734E-03
   -.395E+00 0.239E+00 0.716E+03   0.389E+00 -.239E+00 -.711E+03   0.767E-02 0.775E-03 -.441E+01   -.997E-04 0.754E-05 -.148E-02
   -.668E+02 0.384E+00 -.148E+02   0.715E+02 -.385E+00 0.145E+02   -.516E+01 -.114E-02 0.425E+00   -.158E-03 0.406E-04 -.169E-02
   0.668E+02 0.384E+00 -.148E+02   -.715E+02 -.384E+00 0.145E+02   0.516E+01 -.123E-02 0.425E+00   0.180E-03 0.321E-04 -.170E-02
   -.636E-05 0.255E+00 0.557E+03   0.180E-04 -.255E+00 -.561E+03   -.245E-04 -.136E-02 0.442E+01   0.842E-05 0.161E-04 -.135E-02
   -.176E-03 0.793E+00 -.618E+03   0.119E-03 -.787E+00 0.625E+03   0.620E-04 -.861E-02 -.665E+01   0.603E-05 0.519E-04 -.174E-02
   -.383E+02 0.125E+01 -.130E+04   0.413E+02 -.124E+01 0.130E+04   -.309E+01 -.203E-01 0.995E+00   0.194E-03 0.957E-04 -.188E-02
   0.383E+02 0.126E+01 -.130E+04   -.414E+02 -.125E+01 0.130E+04   0.309E+01 -.198E-01 0.995E+00   -.142E-03 0.965E-04 -.189E-02
   -.262E+01 0.192E+01 -.730E+03   0.258E+01 -.190E+01 0.724E+03   0.593E-01 -.380E-01 0.634E+01   -.491E-03 0.132E-03 -.189E-02
   0.818E+01 0.655E+01 -.184E+04   -.805E+01 -.649E+01 0.184E+04   -.167E+00 -.889E-01 0.304E+01   0.120E-02 0.591E-03 -.250E-02
   -.264E+02 0.421E+01 -.267E+04   0.326E+02 -.415E+01 0.268E+04   -.636E+01 -.125E+00 -.386E+01   0.748E-03 0.332E-03 -.697E-03
   0.263E+02 0.418E+01 -.267E+04   -.325E+02 -.411E+01 0.268E+04   0.635E+01 -.128E+00 -.386E+01   -.713E-03 0.336E-03 -.694E-03
   -.570E-04 0.293E+01 -.206E+04   0.387E-03 -.292E+01 0.207E+04   -.396E-03 -.189E-01 -.149E+01   0.113E-04 0.239E-03 -.129E-02
   -.405E-02 0.390E+01 -.310E+04   0.486E-02 -.389E+01 0.312E+04   -.931E-03 -.291E-01 -.210E+02   0.127E-04 0.310E-03 -.119E-03
   -.779E-02 0.207E-01 0.289E+02   0.149E-12 0.725E-12 -.146E-10   0.931E-02 -.201E-01 -.282E+02   0.849E-03 -.441E-05 -.375E+00

 POSITION                                       TOTAL-FORCE (eV/Angst)
      6.43919      1.46086      8.76305        -0.000025     -0.018642     -3.663651
      9.65879      0.00000      8.76305         0.001025     -0.000025      2.841796
      9.65879      1.46086     11.98264         0.004652     -0.017916      0.486403
      6.43919      0.00000     11.98264        -0.000028      0.000023     -0.799369
      6.43919      1.46086     15.20224        -0.000042      0.008786      0.463994
      9.65879      0.00000     15.20224         0.015159     -0.000075     -0.822205
      9.65879      1.46061     18.35772         0.107765     -0.041320     -0.157745
      6.43920      0.00006     18.53147         0.001536     -0.000539     -0.481511
      6.43944      1.46107     21.84364        -0.000114     -0.485207     -0.338327
      3.21960      0.00010     21.50180        -0.140400     -0.001644     -0.197307
      6.43919      4.38257      8.76305        -0.000004      0.019758     -3.662748
      9.65879      2.92171      8.76305         0.001220      0.000357      2.840315
      9.65879      4.38257     11.98264         0.004395      0.019388      0.486600
      6.43919      2.92171     11.98264        -0.000020      0.001715     -0.813334
      6.43919      4.38257     15.20224        -0.000043     -0.011927      0.455953
      9.65879      2.92171     15.20224         0.015376      0.000220     -0.820298
      9.65879      4.38280     18.35771         0.125599     -0.040779     -0.212727
      6.43919      2.92174     18.53177        -0.000117     -0.000934     -0.847224
      6.43894      4.38241     21.84369        -0.000694     -1.578970     -1.829190
      3.21959      2.92164     21.49985        -0.387572     -0.254446     -0.254517
      6.43919      7.30428      8.76305         0.000008     -0.019747     -3.662725
      9.65879      5.84342      8.76305         0.000809     -0.000050      2.841860
      9.65879      7.30428     11.98264         0.004332     -0.019396      0.486579
      6.43919      5.84342     11.98264        -0.000003     -0.000004     -0.792769
      6.43919      7.30428     15.20224        -0.000020      0.011764      0.455871
      9.65879      5.84342     15.20224         0.015041      0.000020     -0.833225
      9.65878      7.30404     18.35773         0.125819      0.040583     -0.212902
      6.43919      5.84347     18.53147        -0.000228     -0.000933     -0.806524
      6.43922      7.30452     21.84366         0.000034      1.579295     -1.828436
      3.21956      5.84348     21.50180        -0.415277     -0.000239     -0.401802
      6.43919     10.22599      8.76305        -0.000027      0.018652     -3.663649
      9.65879      8.76513      8.76305         0.001056     -0.000347      2.840245
      9.65879     10.22599     11.98264         0.004580      0.017872      0.486402
      6.43919      8.76513     11.98264        -0.000046     -0.001742     -0.813361
      6.43919     10.22599     15.20224        -0.000046     -0.008655      0.463928
      9.65879      8.76513     15.20224         0.015406     -0.000212     -0.820326
      9.65881     10.22622     18.35772         0.107447      0.041493     -0.157617
      6.43920      8.76516     18.53174        -0.000304      0.001494     -0.846490
      6.43897     10.22583     21.84366        -0.000828      0.483490     -0.338393
      3.21956      8.76508     21.49984        -0.387504      0.255705     -0.254277
      0.00000      1.46086      8.76305        -0.000002     -0.019010     -3.661725
      3.21960      0.00000      8.76305        -0.001035     -0.000008      2.841830
      3.21960      1.46086     11.98264        -0.004670     -0.017920      0.486431
      0.00000      0.00000     11.98264         0.000041      0.000035     -0.781903
      0.00000      1.46086     15.20224        -0.000024      0.005541      0.516482
      3.21960      0.00000     15.20224        -0.015182      0.000041     -0.822030
      3.21959      1.46065     18.35772        -0.107979     -0.043132     -0.157836
     12.87838      0.00002     18.53146         0.000193     -0.000336     -0.247768
     12.87813      1.46107     21.84367         0.000515     -0.006105     -0.139493
      9.65878     11.68675     21.50180         0.140489      0.000580     -0.197419
      0.00000      4.38257      8.76305        -0.000009      0.019066     -3.661547
      3.21960      2.92171      8.76305        -0.001112      0.000306      2.840436
      3.21960      4.38257     11.98264        -0.004352      0.019415      0.486643
      0.00000      2.92171     11.98264        -0.000015      0.000442     -0.798814
      0.00000      4.38257     15.20224        -0.000036     -0.009650      0.513281
      3.21960      2.92171     15.20224        -0.015385      0.000240     -0.820627
      3.21959      4.38277     18.35771        -0.125682     -0.039394     -0.212534
     12.87838      2.92173     18.53178         0.000044     -0.024533     -0.244984
      0.00020      4.38234     21.84366         0.000470     -0.019076     -0.140750
      9.65877      2.92178     21.49984         0.387882     -0.255640     -0.254679
[...]
     11.61533     10.22599     11.98264        -0.404324     -0.005320      0.064390
      3.21960      8.76513     10.71960         0.000302      0.000468     -1.404693
      3.21960      8.76513     13.24569         0.001482      0.000229     -0.039459
     10.92183     10.22599     15.20224        -0.425361     -0.001546      0.105974
      1.95655     10.22599     15.20224         0.425355     -0.001611      0.105990
      0.00000      8.76513     13.93919        -0.000014     -0.000891      0.002934
      0.00000      8.76513     16.46529         0.000001     -0.002565      0.155892
      1.28935     10.22575     18.43451        -0.006572     -0.007552      0.037348
     11.58905     10.22575     18.43449         0.006306     -0.007479      0.037418
      3.21960      8.76513     17.17248         0.019324     -0.023898      0.052706
      9.65879      8.76511     19.70183        -0.040021     -0.027801      0.318926
     10.86969     10.22584     21.81360        -0.109257     -0.063433      0.018966
      2.00875     10.22583     21.81367         0.108599     -0.063440      0.019152
      0.00000      8.76512     20.38276        -0.000065     -0.008989      0.208592
      0.00001      8.76512     22.91216        -0.000118     -0.015933      0.034628
    total drift:                                0.002375      0.000557      0.265215

  FREE ENERGIE OF THE ION-ELECTRON SYSTEM (eV)
  free  energy   TOTEN  =     -2315.71810363 eV

  energy  without entropy=    -2315.68088121  energy(sigma->0) =    -2315.69949242

 total charge

# of ion       s       p       d       tot
    1        2.232   6.327   1.823  10.382
    2        2.213   6.270   1.791  10.275
    3        2.234   6.328   1.780  10.343
    4        2.235   6.330   1.783  10.349
    5        2.234   6.330   1.785  10.348
    6        2.232   6.326   1.782  10.339
    7        2.238   6.334   1.812  10.384
    8        2.233   6.319   1.782  10.335
    9        2.233   6.315   1.844  10.392
   10        2.243   6.305   1.876  10.424
   11        2.232   6.327   1.823  10.382
   12        2.213   6.270   1.791  10.275
   13        2.234   6.328   1.780  10.343
   14        2.235   6.330   1.783  10.348
   15        2.234   6.329   1.786  10.349
   16        2.232   6.325   1.782  10.339
   17        2.238   6.334   1.812  10.384
   18        2.233   6.319   1.785  10.337
   19        2.203   6.239   1.822  10.264
   20        2.243   6.304   1.879  10.426
   21        2.232   6.327   1.823  10.382
   22        2.213   6.270   1.791  10.275
   23        2.234   6.328   1.780  10.343
   24        2.235   6.330   1.783  10.349
   25        2.234   6.329   1.786  10.349
   26        2.232   6.325   1.782  10.340
   27        2.238   6.334   1.812  10.384
   28        2.232   6.318   1.782  10.333
   29        2.203   6.239   1.822  10.264
   30        2.242   6.305   1.884  10.432
   31        2.232   6.327   1.823  10.382
   32        2.213   6.270   1.791  10.275
   33        2.234   6.328   1.780  10.343
   34        2.235   6.330   1.783  10.348
   35        2.234   6.330   1.785  10.348
   36        2.232   6.325   1.782  10.339
   37        2.238   6.334   1.812  10.384
   38        2.233   6.319   1.785  10.337
   39        2.233   6.315   1.844  10.392
   40        2.243   6.304   1.879  10.426
   41        2.232   6.327   1.823  10.382
   42        2.213   6.270   1.791  10.275
   43        2.234   6.328   1.780  10.343
   44        2.235   6.330   1.783  10.348
   45        2.234   6.330   1.785  10.349
   46        2.232   6.326   1.782  10.339
   47        2.238   6.334   1.812  10.384
   48        2.233   6.319   1.783  10.336
   49        2.233   6.315   1.851  10.399
   50        2.243   6.305   1.876  10.424
   51        2.232   6.327   1.823  10.382
   52        2.213   6.270   1.791  10.275
   53        2.234   6.328   1.780  10.343
   54        2.235   6.330   1.783  10.348
   55        2.234   6.330   1.785  10.349
   56        2.232   6.325   1.782  10.339
   57        2.238   6.334   1.812  10.384
   58        2.233   6.319   1.783  10.336
   59        2.233   6.315   1.852  10.400
   60        2.243   6.304   1.879  10.426
[...]
  225        1.564   3.494   0.000   5.058
  226        1.562   3.483   0.000   5.045
  227        1.564   3.491   0.000   5.055
  228        1.565   3.492   0.000   5.057
  229        1.565   3.492   0.000   5.057
  230        1.565   3.495   0.000   5.060
  231        1.563   3.472   0.000   5.035
  232        1.563   3.490   0.000   5.053
  233        1.563   3.490   0.000   5.053
  234        1.568   3.511   0.000   5.079
  235        1.566   3.508   0.000   5.074
  236        1.562   3.484   0.000   5.046
  237        1.562   3.484   0.000   5.046
  238        1.561   3.466   0.000   5.028
  239        1.582   3.437   0.000   5.019
tot        427.4771058.702 144.4961630.675