 vasp.6.2.0 18Jan21 (build Mar 03 2021 13:27:41) complex

 executed on             LinuxIFC date 2021.06.30  08:07:35

 INCAR:
   SYSTEM = TiO2-rutile
   ISMEAR = 0
   SIGMA = 0.05
   EDIFF = 1E-5
   ALGO = Fast
   ISTART = 1
   GGA = PS
   ISYM = 0
   IBRION = -1
   NSW = 0
   EDIFFG = -0.01
   ENCUT = 500
   PREC = Accurate
   LASPH = .TRUE.
   LREAL = Auto
   ISPIN = 1
   NELM = 500
   NELMIN = 4
   NCORE = 20
   LWAVE = .FALSE.
   LCHARG = .FALSE.
   LORBIT = 11

 POTCAR:    PAW_PBE Ti_sv 26Sep2005
 POTCAR:    PAW_PBE O 08Apr2002
|           W    W    AA    RRRRR   N    N  II  N    N   GGGG   !!!           |
|           W    W   A  A   R    R  NN   N  II  NN   N  G    G  !!!           |
|           W    W  A    A  R    R  N N  N  II  N N  N  G       !!!           |
|           W WW W  AAAAAA  RRRRR   N  N N  II  N  N N  G  GGG   !            |
|           WW  WW  A    A  R   R   N   NN  II  N   NN  G    G                |
|           W    W  A    A  R    R  N    N  II  N    N   GGGG   !!!           |
|     For optimal performance we recommend to set                             |
|       NCORE = 2 up to number-of-cores-per-socket                            |
|     This setting can greatly improve the performance of VASP for DFT.       |
|     The default, NCORE=1 might be grossly inefficient on modern             |
|     multi-core architectures or massively parallel machines. Do your        |
|     Unfortunately you need to use the default for GW and RPA                |
|     calculations (for HF NCORE is supported but not extensively tested      |
|     yet).                                                                   |

   TITEL  = PAW_PBE Ti_sv 26Sep2005
   POMASS =   47.880; ZVAL   =   12.000    mass and valenz
   ENMAX  =  274.610; ENMIN  =  205.957 eV

   TITEL  = PAW_PBE O 08Apr2002
   POMASS =   16.000; ZVAL   =    6.000    mass and valenz
   ENMAX  =  400.000; ENMIN  =  300.000 eV

 Optimization of the real space projectors (new method)

 maximal supplied QI-value         = 16.25
 optimisation between [QCUT,QGAM] = [ 11.38, 22.75] = [ 36.24,144.96] Ry
 Optimized for a Real-space Cutoff    1.27 Angstroem

   l    n(q)    QCUT    max X(q) W(low)/X(q) W(high)/X(q)  e(spline)
   0      9    11.376    12.277    0.53E-04    0.25E-04    0.25E-07
   0      9    11.376    11.419    0.89E-04    0.67E-05    0.35E-07
   1      8    11.376     4.010    0.13E-03    0.11E-03    0.29E-07
   1      8    11.376     6.182    0.94E-04    0.19E-03    0.11E-06
   2      8    11.376    47.177    0.13E-03    0.88E-03    0.24E-06
   2      8    11.376    42.437    0.13E-03    0.86E-03    0.23E-06
 Optimization of the real space projectors (new method)

 maximal supplied QI-value         = 24.76
 optimisation between [QCUT,QGAM] = [ 11.39, 22.77] = [ 36.31,145.25] Ry
 Optimized for a Real-space Cutoff    1.10 Angstroem

   l    n(q)    QCUT    max X(q) W(low)/X(q) W(high)/X(q)  e(spline)
   0      7    11.387    20.381    0.22E-03    0.48E-03    0.18E-06
   0      7    11.387    15.268    0.22E-03    0.52E-03    0.19E-06
   1      7    11.387     5.964    0.22E-03    0.73E-03    0.24E-06
   1      7    11.387     5.382    0.19E-03    0.60E-03    0.21E-06
|               ----> ADVICE to this user running VASP <----                  |
|     You enforced a specific xc type in the INCAR file but a different       |
|     type was found in the POTCAR file.                                      |
|     I HOPE YOU KNOW WHAT YOU ARE DOING!                                     |

  PAW_PBE Ti_sv 26Sep2005               :
  PAW_PBE O 08Apr2002                   :

 POSCAR: Ti  O
  positions in direct lattice
  velocities in cartesian coordinates
 exchange correlation table for  LEXCH =       14
   RHO(1)=    0.500       N(1)  =     2000
   RHO(2)=  100.500       N(2)  =     4000

 ion  position               nearest neighbor table
   1  0.500  0.125  0.287-  83 1.94 103 1.94  84 1.94 104 1.94  81 1.98  82 1.98
   2  0.250  0.000  0.287-  81 1.94 140 1.94 161 1.94 221 1.94  87 1.98
   3  0.250  0.125  0.394-  87 1.94 107 1.94  88 1.94 108 1.94  86 1.98 164 1.98
   4  0.500  0.000  0.394-  85 1.94  86 1.94 144 1.94 145 1.94  84 1.98  91 1.98
   5  0.500  0.125  0.500-  91 1.94  92 1.94 111 1.94 112 1.94  89 1.98  90 1.98
   6  0.250  0.000  0.500-  89 1.94 148 1.94 169 1.94 229 1.94  88 1.98  95 1.99
   7  0.249  0.125  0.604-  95 1.89 115 1.90 172 1.93  94 1.98  96 2.01 116 2.02
   8  0.500  0.000  0.613-  99 1.89  93 1.96 152 1.96  94 1.96 153 1.96  92 2.19
   9  0.500  0.122  0.724- 100 1.81 120 1.83  97 2.02  98 2.02  99 2.06 119 2.13  19 2.80  39 2.86

  10  0.750  0.000  0.708- 175 1.80 176 1.94 236 1.94  98 1.95 157 1.95
  11  0.500  0.375  0.287- 103 1.94 123 1.94 104 1.94 124 1.94 101 1.98 102 1.98
  12  0.250  0.250  0.287-  81 1.94 101 1.94 161 1.94 181 1.94 107 1.98
  13  0.250  0.375  0.394- 107 1.94 127 1.94 108 1.94 128 1.94 106 1.98 184 1.98
  14  0.500  0.250  0.394-  85 1.94  86 1.94 105 1.94 106 1.94 104 1.98 111 1.98
  15  0.500  0.375  0.500- 111 1.94 112 1.94 131 1.94 132 1.94 109 1.98 110 1.98
  16  0.250  0.250  0.500-  89 1.94 109 1.94 169 1.94 189 1.94 108 1.98 115 2.00
  17  0.249  0.375  0.605- 115 1.89 135 1.90 192 1.92 114 1.99 136 2.01 116 2.02
  18  0.500  0.248  0.604- 112 1.91  94 1.94  93 1.94 114 1.97 113 1.97 119 2.05
  19  0.500  0.356  0.708- 119 1.76 120 1.83 139 1.95 117 2.01 118 2.01   9 2.80
  20  0.750  0.250  0.709- 195 1.80 196 1.92 176 1.93  98 1.95 118 1.99
  21  0.500  0.625  0.287- 123 1.94 142 1.94 124 1.94 143 1.94 121 1.98 122 1.98
  22  0.250  0.500  0.287- 101 1.94 121 1.94 181 1.94 201 1.94 127 1.98
  23  0.250  0.625  0.394- 127 1.94 146 1.94 128 1.94 147 1.94 126 1.98 204 1.98
  24  0.500  0.500  0.394- 105 1.94 106 1.94 125 1.94 126 1.94 124 1.98 131 1.98
  25  0.500  0.625  0.500- 131 1.94 132 1.94 150 1.94 151 1.94 129 1.98 130 1.98
  26  0.250  0.500  0.500- 109 1.94 129 1.94 189 1.94 209 1.94 128 1.98 135 2.00
  27  0.248  0.625  0.605- 154 1.90 135 1.90 212 1.92 134 1.99 136 2.01 155 2.02
  28  0.500  0.500  0.608- 133 1.95 113 1.95 134 1.95 114 1.95 132 2.01 139 2.10
  29  0.500  0.644  0.708- 158 1.76 159 1.83 139 1.95 137 2.01 138 2.01  39 2.80
  30  0.748  0.500  0.708- 215 1.79 216 1.94 196 1.94 138 1.95 118 1.95
  31  0.500  0.875  0.287-  83 1.94 142 1.94  84 1.94 143 1.94 140 1.98 141 1.98
  32  0.250  0.750  0.287- 121 1.94 140 1.94 201 1.94 221 1.94 146 1.98
  33  0.250  0.875  0.394-  87 1.94 146 1.94  88 1.94 147 1.94 145 1.98 224 1.98
  34  0.500  0.750  0.394- 125 1.94 126 1.94 144 1.94 145 1.94 143 1.98 150 1.98
  35  0.500  0.875  0.500-  91 1.94  92 1.94 150 1.94 151 1.94 148 1.98 149 1.98
  36  0.250  0.750  0.500- 129 1.94 148 1.94 209 1.94 229 1.94 147 1.98 154 2.00
  37  0.249  0.875  0.604-  95 1.89 154 1.90 232 1.93 153 1.98  96 2.01 155 2.02
  38  0.500  0.752  0.604- 151 1.91 153 1.93 152 1.94 134 1.97 133 1.98 158 2.05
  39  0.500  0.878  0.724- 100 1.81 159 1.83 156 2.02 157 2.02  99 2.06 158 2.13  29 2.80   9 2.86

  40  0.750  0.750  0.709- 235 1.80 216 1.92 236 1.93 157 1.95 138 1.99
  41  0.000  0.125  0.287- 162 1.94 182 1.94 163 1.94 183 1.94 160 1.98 161 1.98
  42  0.750  0.000  0.287-  82 1.94 141 1.94 160 1.94 220 1.94 166 1.98
  43  0.750  0.125  0.394- 166 1.94 186 1.94 167 1.94 187 1.94  85 1.98 165 1.98
  44  0.000  0.000  0.394- 164 1.94 165 1.94 224 1.94 225 1.94 163 1.98 170 1.98
  45  0.000  0.125  0.500- 170 1.94 171 1.94 190 1.94 191 1.94 168 1.98 169 1.98
  46  0.750  0.000  0.500-  90 1.94 149 1.94 168 1.94 228 1.94 167 1.98 174 1.99
  47  0.751  0.125  0.604- 174 1.89 194 1.90 173 1.93  93 1.98 175 2.01 195 2.02
  48  0.000  1.000  0.610- 178 1.88 232 1.97 233 1.97 172 1.97 173 1.97 171 2.08
  49  0.000  0.125  0.719- 179 1.82 199 1.82 177 2.04 176 2.04 178 2.08 198 2.08
  50  0.250  1.000  0.708-  96 1.80 237 1.94 177 1.94 156 1.95  97 1.95
  51  0.000  0.375  0.287- 182 1.94 202 1.94 183 1.94 203 1.94 180 1.98 181 1.98
  52  0.750  0.250  0.287-  82 1.94 102 1.94 160 1.94 180 1.94 186 1.98
  53  0.750  0.375  0.394- 186 1.94 206 1.94 187 1.94 207 1.94 105 1.98 185 1.98
  54  0.000  0.250  0.394- 164 1.94 165 1.94 184 1.94 185 1.94 183 1.98 190 1.98
  55  0.000  0.375  0.500- 190 1.94 191 1.94 210 1.94 211 1.94 188 1.98 189 1.98
  56  0.750  0.250  0.500-  90 1.94 110 1.94 168 1.94 188 1.94 187 1.98 194 2.00
  57  0.751  0.375  0.605- 194 1.90 214 1.90 193 1.92 113 1.99 215 2.01 195 2.02
  58  0.000  0.250  0.610- 198 1.87 172 1.97 173 1.97 192 1.97 193 1.97 191 2.08
  59  1.000  0.375  0.719- 199 1.82 219 1.82 196 2.06 197 2.06 198 2.07 218 2.08
  60  0.250  0.250  0.709- 116 1.80 197 1.92 177 1.93  97 1.95 117 1.99
  61  0.000  0.625  0.287- 202 1.94 222 1.94 203 1.94 223 1.94 200 1.98 201 1.98
  62  0.750  0.500  0.287- 102 1.94 122 1.94 180 1.94 200 1.94 206 1.98
  63  0.750  0.625  0.394- 206 1.94 226 1.94 207 1.94 227 1.94 125 1.98 205 1.98
  64  0.000  0.500  0.394- 184 1.94 185 1.94 204 1.94 205 1.94 203 1.98 210 1.98
  65  0.000  0.625  0.500- 210 1.94 211 1.94 230 1.94 231 1.94 208 1.98 209 1.98
  66  0.750  0.500  0.500- 110 1.94 130 1.94 188 1.94 208 1.94 207 1.98 214 2.00
  67  0.751  0.625  0.605- 234 1.89 214 1.90 213 1.93 133 1.99 215 2.01 235 2.02
  68  1.000  0.500  0.610- 218 1.88 213 1.97 193 1.97 212 1.97 192 1.97 211 2.08
  69  1.000  0.625  0.719- 239 1.82 219 1.82 216 2.06 217 2.06 238 2.07 218 2.08
  70  0.252  0.500  0.708- 136 1.79 217 1.94 197 1.94 137 1.95 117 1.95
  71  0.000  0.875  0.287- 162 1.94 222 1.94 163 1.94 223 1.94 220 1.98 221 1.98
  72  0.750  0.750  0.287- 122 1.94 141 1.94 200 1.94 220 1.94 226 1.98
  73  0.750  0.875  0.394- 166 1.94 226 1.94 167 1.94 227 1.94 144 1.98 225 1.98
  74  0.000  0.750  0.394- 204 1.94 205 1.94 224 1.94 225 1.94 223 1.98 230 1.98
  75  0.000  0.875  0.500- 170 1.94 171 1.94 230 1.94 231 1.94 228 1.98 229 1.98
  76  0.750  0.750  0.500- 130 1.94 149 1.94 208 1.94 228 1.94 227 1.98 234 2.00
  77  0.751  0.875  0.604- 174 1.89 234 1.90 233 1.93 152 1.98 175 2.01 235 2.02
  78  1.000  0.750  0.610- 238 1.88 233 1.97 232 1.97 213 1.97 212 1.97 231 2.08
  79  0.000  0.875  0.719- 179 1.82 239 1.82 237 2.04 236 2.04 178 2.08 238 2.08
  80  0.250  0.750  0.709- 155 1.80 217 1.92 237 1.93 156 1.95 137 1.99
  81  0.348  0.125  0.287-   2 1.94  12 1.94   1 1.98
  82  0.652  0.125  0.287-  42 1.94  52 1.94   1 1.98
  83  0.500  0.000  0.246-   1 1.94  31 1.94
  84  0.500  0.000  0.329-   1 1.94  31 1.94   4 1.98
  85  0.598  0.125  0.394-   4 1.94  14 1.94  43 1.98
  86  0.402  0.125  0.394-   4 1.94  14 1.94   3 1.98
  87  0.250  0.000  0.352-   3 1.94  33 1.94   2 1.98
  88  0.250  0.000  0.435-   3 1.94  33 1.94   6 1.98
  89  0.348  0.125  0.500-   6 1.94  16 1.94   5 1.98
  90  0.652  0.125  0.500-  46 1.94  56 1.94   5 1.98
  91  0.500  0.000  0.458-   5 1.94  35 1.94   4 1.98
  92  0.500  0.000  0.542-   5 1.94  35 1.94   8 2.19
  93  0.599  0.125  0.607-  18 1.94   8 1.96  47 1.98
  94  0.401  0.125  0.607-  18 1.94   8 1.96   7 1.98
  95  0.251  1.000  0.565-   7 1.89  37 1.89   6 1.99
  96  0.252  1.000  0.649-  50 1.80   7 2.01  37 2.01
  97  0.345  0.124  0.720-  50 1.95  60 1.95   9 2.02
[...]
   -.563E-02 -.817E-02 0.252E+04   0.503E-02 0.824E-02 -.252E+04   0.911E-04 0.153E-04 0.635E+00   0.456E-03 0.677E-05 -.234E-03
   -.533E-01 0.387E+01 -.360E+02   0.535E-01 -.419E+01 0.350E+02   -.149E-03 0.766E-01 0.281E+00   0.265E-03 0.117E-04 -.889E-03
   0.561E+01 -.322E-01 -.331E+02   -.591E+01 0.319E-01 0.316E+02   0.737E-01 0.415E-03 0.615E+00   -.223E-04 0.207E-04 -.741E-03
   -.121E+02 0.577E+01 -.255E+04   0.118E+02 -.575E+01 0.255E+04   0.237E+00 -.176E-01 0.956E+00   -.625E-04 0.586E-04 -.451E-03
   0.295E+00 -.104E-01 -.264E+04   -.287E+00 0.115E-01 0.264E+04   -.863E-02 -.336E-02 0.599E+00   0.155E-04 -.218E-04 -.677E-03
   -.776E-01 0.305E+03 -.498E+04   0.757E-01 -.303E+03 0.498E+04   0.211E-02 -.180E+01 0.976E+00   -.866E-04 -.316E-03 0.157E-03
   0.708E+02 -.293E-01 -.508E+04   -.708E+02 0.309E-01 0.508E+04   -.240E-01 -.112E-02 0.285E+01   -.225E-03 -.132E-05 0.218E-03
   -.138E-02 0.122E-01 0.501E+04   0.127E-02 0.226E-02 -.502E+04   -.423E-04 0.237E-01 0.115E+01   0.247E-03 -.697E-04 0.336E-03
   0.145E+00 0.199E-01 0.523E+04   -.168E+00 -.179E-01 -.522E+04   0.641E-02 -.538E-03 -.574E+01   0.257E-04 -.342E-04 0.391E-03
   0.739E+00 -.569E-01 0.253E+04   -.829E+00 0.619E-01 -.253E+04   0.246E-01 -.154E-01 -.720E-01   0.118E-04 -.609E-04 -.388E-03
   -.850E-02 -.199E+00 0.252E+04   0.788E-02 0.228E+00 -.252E+04   0.218E-04 -.434E-02 0.640E+00   0.472E-03 -.404E-05 -.177E-03
   -.636E-01 -.853E+01 -.397E+02   0.640E-01 0.101E+02 0.395E+02   -.212E-03 -.337E+00 0.915E-01   0.196E-03 -.645E-04 -.859E-03
   0.604E+01 0.502E+00 -.310E+02   -.628E+01 -.399E+00 0.294E+02   0.661E-01 -.215E-01 0.644E+00   0.679E-05 -.106E-04 -.660E-03
   -.684E+01 0.574E+01 -.254E+04   0.665E+01 -.574E+01 0.254E+04   0.183E+00 -.801E-02 0.975E+00   0.884E-05 0.972E-04 -.547E-03
   -.602E+00 0.244E+02 -.252E+04   0.606E+00 -.241E+02 0.252E+04   -.299E-02 -.329E+00 0.584E+00   -.167E-04 0.402E-04 -.750E-03
   -.150E-01 0.431E+02 -.512E+04   0.144E-01 -.423E+02 0.512E+04   0.420E-03 -.696E+00 -.128E+01   -.908E-04 0.488E-04 0.298E-03
   0.248E+02 0.430E+02 -.506E+04   -.244E+02 -.428E+02 0.506E+04   -.417E+00 -.201E+00 0.281E+01   -.105E-03 -.830E-04 0.179E-03
   0.124E-02 -.209E-01 0.501E+04   -.102E-02 0.218E-01 -.502E+04   -.209E-04 -.270E-01 0.114E+01   -.267E-03 0.206E-04 0.300E-03
   -.131E+00 0.132E-02 0.523E+04   0.153E+00 -.142E-02 -.522E+04   -.596E-02 0.919E-04 -.569E+01   -.376E-04 -.127E-04 0.446E-03
   -.740E+00 0.667E-01 0.253E+04   0.831E+00 -.717E-01 -.253E+04   -.248E-01 0.155E-01 -.721E-01   -.218E-04 0.670E-04 -.532E-03
   0.614E-02 0.581E-02 0.252E+04   -.553E-02 -.572E-02 -.252E+04   -.902E-04 -.611E-04 0.471E+00   -.438E-03 -.304E-04 -.536E-04
   0.101E-01 -.832E+00 -.454E+02   -.926E-02 0.845E+00 0.458E+02   -.258E-03 0.954E-02 -.105E+00   -.240E-03 -.853E-06 -.640E-03
   -.200E+01 0.661E-01 -.310E+02   0.213E+01 -.672E-01 0.295E+02   -.261E-01 0.346E-03 0.608E+00   -.531E-05 -.179E-04 -.590E-03
   0.702E+01 -.573E+01 -.254E+04   -.684E+01 0.573E+01 0.254E+04   -.192E+00 0.884E-02 0.974E+00   -.298E-04 -.162E-04 -.441E-03
   0.601E-02 -.702E-01 -.260E+04   -.662E-02 0.665E-01 0.260E+04   -.147E-03 0.432E-02 -.979E+00   0.126E-04 -.224E-04 -.402E-03
   -.155E-01 -.843E+01 -.501E+04   0.161E-01 0.844E+01 0.501E+04   -.735E-03 -.134E-01 -.144E+01   0.493E-04 -.342E-04 -.233E-04
   0.720E+01 -.194E-01 -.503E+04   -.713E+01 0.185E-01 0.502E+04   -.734E-01 0.995E-03 0.265E+01   0.136E-03 -.335E-06 0.503E-03
   0.122E-02 -.260E-01 0.501E+04   -.989E-03 0.246E-01 -.502E+04   -.282E-04 0.271E-01 0.114E+01   -.263E-03 0.279E-04 0.277E-03
   -.145E+00 -.198E-01 0.523E+04   0.169E+00 0.178E-01 -.522E+04   -.644E-02 0.395E-03 -.574E+01   -.316E-04 0.955E-05 0.451E-03
   -.954E+00 -.674E-01 0.253E+04   0.106E+01 0.511E-01 -.253E+04   -.306E-01 -.991E-02 -.663E-01   -.850E-05 0.351E-04 -.508E-03
   0.454E-02 -.138E+00 0.252E+04   -.388E-02 0.133E+00 -.252E+04   -.606E-04 0.102E-02 0.510E+00   -.506E-03 0.360E-04 0.321E-05
   0.170E-01 -.760E+00 -.470E+02   -.170E-01 0.751E+00 0.474E+02   0.340E-04 -.109E-01 -.108E+00   -.280E-03 0.142E-04 -.676E-03
   -.603E+01 -.498E+00 -.309E+02   0.627E+01 0.396E+00 0.294E+02   -.664E-01 0.211E-01 0.644E+00   -.545E-04 0.855E-04 -.630E-03
   0.121E+02 -.592E+01 -.255E+04   -.119E+02 0.591E+01 0.255E+04   -.233E+00 0.142E-01 0.956E+00   0.505E-05 0.930E-04 -.340E-03
   0.588E-01 -.608E+01 -.261E+04   -.536E-01 0.607E+01 0.261E+04   -.439E-02 0.987E-02 -.984E+00   -.576E-04 0.111E-03 -.420E-03
   -.232E-01 -.129E+02 -.501E+04   0.224E-01 0.130E+02 0.501E+04   0.737E-03 0.272E-02 -.146E+01   0.191E-04 -.139E-04 -.736E-04
   -.248E+02 -.429E+02 -.506E+04   0.244E+02 0.427E+02 0.506E+04   0.417E+00 0.201E+00 0.281E+01   0.102E-03 0.596E-04 0.511E-03
[...]
   -.222E+00 0.505E-03 0.184E+04   0.255E+00 0.270E-02 -.184E+04   -.433E-01 -.701E-02 0.155E+01   -.175E-04 -.502E-04 -.127E-03
   -.856E+00 0.223E-01 0.699E+03   0.942E+00 -.497E-02 -.695E+03   -.107E+00 -.270E-01 -.417E+01   -.150E-04 -.599E-04 -.658E-04
   -.686E+02 0.392E+00 -.167E+02   0.734E+02 -.388E+00 0.162E+02   -.522E+01 -.245E-01 0.626E+00   -.780E-04 -.116E-04 -.146E-03
   0.686E+02 0.393E+00 -.167E+02   -.734E+02 -.388E+00 0.162E+02   0.522E+01 -.248E-01 0.628E+00   -.994E-04 -.160E-04 -.128E-03
   0.945E-02 0.249E+00 0.545E+03   -.932E-02 -.249E+00 -.550E+03   0.646E-05 -.230E-02 0.481E+01   -.125E-03 -.131E-04 0.312E-04
   0.523E-02 0.103E+01 -.607E+03   -.309E-02 -.103E+01 0.614E+03   -.214E-02 -.158E-02 -.637E+01   -.114E-03 -.199E-04 -.203E-03
   -.322E+02 0.208E+01 -.128E+04   0.348E+02 -.207E+01 0.128E+04   -.265E+01 -.682E-02 0.637E+00   0.541E-04 0.102E-05 -.142E-03
   0.325E+02 0.196E+01 -.128E+04   -.351E+02 -.193E+01 0.128E+04   0.268E+01 -.246E-01 0.639E+00   -.255E-03 -.439E-04 -.173E-03
   0.448E+01 0.171E+01 -.718E+03   -.506E+01 -.170E+01 0.711E+03   0.581E+00 -.171E-01 0.644E+01   0.103E-04 -.633E-04 -.361E-04
   0.753E+01 0.723E+01 -.180E+04   -.797E+01 -.717E+01 0.180E+04   0.445E+00 -.619E-01 0.334E+01   -.876E-05 -.737E-04 -.148E-03
   -.379E+02 0.371E+01 -.262E+04   0.443E+02 -.352E+01 0.262E+04   -.643E+01 -.175E+00 -.420E+01   -.111E-03 -.220E-05 -.943E-05
   0.378E+02 0.373E+01 -.262E+04   -.443E+02 -.354E+01 0.262E+04   0.642E+01 -.175E+00 -.420E+01   0.752E-04 0.299E-04 0.101E-03
   -.287E-01 0.612E+01 -.202E+04   0.313E-01 -.613E+01 0.202E+04   -.277E-02 0.434E-02 -.136E+01   -.534E-04 0.124E-04 -.259E-04
   -.329E-01 0.529E+01 -.304E+04   0.341E-01 -.516E+01 0.306E+04   -.132E-02 -.132E+00 -.210E+02   0.158E-04 0.606E-04 0.685E-04
   -.349E-01 0.489E-01 0.167E+02   0.271E-11 -.409E-12 -.255E-10   0.170E-01 -.547E-01 -.164E+02   -.845E-03 0.461E-04 -.180E-01

 POSITION                                       TOTAL-FORCE (eV/Angst)
      6.49652      1.47084      8.77133         0.000141     -0.038136     -3.580947
      3.24826      0.00000      8.77133        -0.015503      0.000120      2.852523
      3.24826      1.47084     12.01959        -0.066145      0.010414      0.310810
      6.49652      0.00000     12.01959        -0.000051     -0.000049     -1.162814
      6.49652      1.47084     15.26785        -0.000031     -1.198496     -0.135096
      3.24826      0.00000     15.26785        -0.107869      0.000265     -0.886750
      3.23091      1.46923     18.45707         0.004630      0.004630      0.044829
      6.49795      0.00098     18.72799        -0.002026     -0.000532     -0.003855
      6.49651      1.43116     22.09458         0.000438     -0.016323     -0.023158
      9.74009      0.00007     21.62608         0.004290      0.000100      0.065408
      6.49652      4.41252      8.77133         0.000124      0.015780     -3.591853
      3.24826      2.94168      8.77133        -0.016945     -0.001419      2.790922
      3.24826      4.41252     12.01959        -0.077809     -0.026178      0.301351
      6.49652      2.94168     12.01959         0.000043     -0.024923     -1.176269
      6.49652      4.41252     15.26785         0.000247      0.249673     -0.795556
      3.24826      2.94168     15.26785        -0.175632     -0.081781     -0.891945
      3.22902      4.41182     18.46023         0.014054      0.001256      0.043451
      6.49619      2.91464     18.44517         0.000448      0.013018      0.022870
      6.49644      4.18947     21.61787         0.000524      0.029687      0.080774
      9.73935      2.93969     21.63583        -0.004051      0.014946      0.065584
      6.49652      7.35420      8.77133         0.000170     -0.015687     -3.591848
      3.24826      5.88336      8.77133        -0.017583     -0.000088      2.850873
      3.24826      7.35420     12.01959        -0.077722      0.026226      0.301367
      6.49652      5.88336     12.01959         0.000026      0.000108     -1.307709
      6.49652      7.35420     15.26785         0.000389     -0.245629     -0.792374
      3.24826      5.88336     15.26785        -0.230006      0.000160     -0.881677
      3.22853      7.35350     18.46023         0.014257     -0.000454      0.044113
      6.49730      5.88350     18.55087        -0.000522     -0.002227      0.020825
      6.49646      7.57717     21.61802         0.000191     -0.030537      0.080837
      9.71765      5.88339     21.62490        -0.015954      0.000509      0.053651
      6.49652     10.29587      8.77133         0.000175      0.038123     -3.580907
      3.24826      8.82504      8.77133        -0.016934      0.001461      2.791227
      3.24826     10.29587     12.01959        -0.066233     -0.010343      0.310765
      6.49652      8.82504     12.01959        -0.000047      0.024946     -1.175726
      6.49652     10.29587     15.26785         0.000436      1.194596     -0.132061
      3.24826      8.82504     15.26785        -0.174959      0.081278     -0.891109
      3.23044     10.29694     18.45666         0.000351     -0.005376      0.046987
      6.49362      8.85276     18.44591         0.000447     -0.013816      0.019906
      6.49652     10.33560     22.09460        -0.000113      0.016257     -0.023145
      9.73944      8.82717     21.63597        -0.005011     -0.015121      0.064749
      0.00000      1.47084      8.77133         0.000011     -0.026005     -3.554135
      9.74478      0.00000      8.77133         0.015649      0.000007      2.852388
      9.74478      1.47084     12.01959         0.066309      0.010588      0.310616
      0.00000      0.00000     12.01959         0.000158      0.000028     -0.992164
      0.00000      1.47084     15.26785         0.000456      0.022956      0.284376
      9.74478      0.00000     15.26785         0.107776     -0.000697     -0.885777
      9.76322      1.46987     18.45651        -0.007192      0.002821      0.046330
      0.00010     11.76651     18.61611        -0.000661      0.000589      0.004001
      0.00002      1.47095     21.95705         0.000022      0.000131      0.035862
      3.25318     11.76668     21.62614        -0.006699      0.000161      0.066016
      0.00000      4.41252      8.77133         0.000015      0.025708     -3.554450
      9.74478      2.94168      8.77133         0.017088     -0.001548      2.791062
      9.74478      4.41252     12.01959         0.077988     -0.026084      0.301427
      0.00000      2.94168     12.01959         0.000171     -0.003263     -0.953815
      0.00000      4.41252     15.26785        -0.000125     -0.019351      0.291098
      9.74478      2.94168     15.26785         0.175239     -0.080678     -0.892097
      9.76425      4.41282     18.46050        -0.012640      0.001070      0.043692
      0.00033      2.94109     18.61869         0.000808      0.003998     -0.002546
     12.99275      4.41267     21.96166        -0.000054      0.007190      0.025247
      3.25347      2.93973     21.63595         0.006089      0.014117      0.065522
[...]
     11.72171     10.29587     12.01959        -0.367637     -0.004106      0.099611
      9.74478      8.82504     10.74826        -0.009753     -0.003833     -1.288928
      9.74478      8.82504     13.29093        -0.020750     -0.009723      0.156073
     11.01612     10.29587     15.26785        -0.419468     -0.019750      0.166516
      1.97693     10.29587     15.26785         0.419530     -0.020046      0.166705
      0.00000      8.82504     13.99652         0.000083     -0.001728      0.172885
      0.00000      8.82504     16.53919        -0.000039     -0.003525      0.237690
      1.30538     10.29436     18.53624        -0.067849      0.002265     -0.001358
     11.68748     10.29463     18.53640         0.068118      0.001311     -0.001630
      9.72252      8.82307     17.26367        -0.001163     -0.000338     -0.031004
      9.72874      8.82460     19.83831         0.002777      0.003826     -0.041807
     10.95497     10.28775     21.94406         0.006207      0.014184     -0.012892
      2.03808     10.28777     21.94409        -0.005703      0.014056     -0.013205
     12.99295      8.81684     20.49365        -0.000140     -0.002570     -0.021154
      0.00001      8.82294     23.03456         0.000037     -0.001420     -0.020187
    total drift:                               -0.018761     -0.005724      0.293699

  FREE ENERGIE OF THE ION-ELECTRON SYSTEM (eV)
  free  energy   TOTEN  =     -2215.04835513 eV

  energy  without entropy=    -2215.00129238  energy(sigma->0) =    -2215.02482376

 total charge

# of ion       s       p       d       tot
    1        2.224   6.309   1.780  10.313
    2        2.206   6.256   1.758  10.220
    3        2.226   6.309   1.742  10.277
    4        2.228   6.311   1.741  10.280
    5        2.226   6.310   1.742  10.279
    6        2.224   6.306   1.741  10.271
    7        2.227   6.306   1.777  10.310
    8        2.220   6.287   1.739  10.246
    9        2.224   6.299   1.836  10.360
   10        2.237   6.290   1.841  10.368
   11        2.224   6.309   1.780  10.313
   12        2.206   6.256   1.758  10.220
   13        2.226   6.309   1.742  10.277
   14        2.227   6.311   1.742  10.280
   15        2.227   6.310   1.739  10.276
   16        2.224   6.306   1.743  10.273
   17        2.228   6.306   1.777  10.310
   18        2.225   6.303   1.749  10.277
   19        2.246   6.297   1.920  10.463
   20        2.236   6.287   1.839  10.361
   21        2.224   6.309   1.780  10.313
   22        2.206   6.256   1.758  10.220
   23        2.226   6.309   1.742  10.277
   24        2.227   6.311   1.742  10.280
   25        2.227   6.310   1.739  10.276
   26        2.224   6.306   1.742  10.272
   27        2.228   6.306   1.777  10.310
   28        2.216   6.286   1.713  10.215
   29        2.246   6.297   1.920  10.463
   30        2.238   6.292   1.841  10.371
   31        2.224   6.309   1.780  10.313
   32        2.206   6.256   1.758  10.220
   33        2.226   6.309   1.742  10.277
   34        2.227   6.311   1.742  10.280
   35        2.226   6.310   1.742  10.279
   36        2.224   6.306   1.743  10.273
   37        2.228   6.306   1.777  10.310
   38        2.225   6.303   1.749  10.276
   39        2.224   6.299   1.836  10.360
   40        2.235   6.287   1.839  10.361
   41        2.224   6.309   1.780  10.313
   42        2.206   6.256   1.758  10.220
   43        2.226   6.309   1.742  10.277
   44        2.228   6.311   1.740  10.279
   45        2.226   6.311   1.742  10.279
   46        2.224   6.306   1.741  10.271
   47        2.228   6.306   1.777  10.310
   48        2.223   6.296   1.741  10.261
   49        2.224   6.295   1.804  10.323
   50        2.237   6.290   1.841  10.368
   51        2.224   6.309   1.780  10.313
   52        2.206   6.256   1.758  10.220
   53        2.226   6.309   1.742  10.277
   54        2.228   6.311   1.741  10.280
   55        2.226   6.311   1.742  10.279
   56        2.224   6.306   1.743  10.273
   57        2.228   6.306   1.776  10.310
   58        2.224   6.297   1.742  10.262
   59        2.222   6.292   1.803  10.316
   60        2.235   6.287   1.838  10.361
[...]
  225        1.569   3.486   0.000   5.055
  226        1.568   3.475   0.000   5.043
  227        1.569   3.483   0.000   5.052
  228        1.570   3.484   0.000   5.054
  229        1.570   3.484   0.000   5.054
  230        1.570   3.486   0.000   5.057
  231        1.568   3.467   0.000   5.035
  232        1.569   3.485   0.000   5.054
  233        1.569   3.485   0.000   5.054
  234        1.572   3.502   0.000   5.074
  235        1.571   3.497   0.000   5.068
  236        1.568   3.477   0.000   5.045
  237        1.567   3.477   0.000   5.045
  238        1.567   3.458   0.000   5.025
  239        1.588   3.430   0.000   5.018
tot        427.7641056.135 141.6091625.508