 vasp.6.2.0 18Jan21 (build Mar 03 2021 13:27:41) complex

 executed on             LinuxIFC date 2021.06.29  17:10:54

 INCAR:
   SYSTEM = TiO2-rutile
   ISMEAR = 0
   SIGMA = 0.05
   EDIFF = 1E-5
   ALGO = Fast
   ISTART = 1
   ISYM = 0
   IBRION = -1
   NSW = 0
   EDIFFG = -0.01
   ENCUT = 500
   PREC = Accurate
   LASPH = .TRUE.
   LREAL = Auto
   ISPIN = 1
   NELM = 500
   NELMIN = 4
   NCORE = 20
   LWAVE = .FALSE.
   LCHARG = .FALSE.
   LORBIT = 11

 POTCAR:    PAW Ti_sv 26Sep2005
 POTCAR:    PAW O 22Mar2012
|           W    W    AA    RRRRR   N    N  II  N    N   GGGG   !!!           |
|           W    W   A  A   R    R  NN   N  II  NN   N  G    G  !!!           |
|           W    W  A    A  R    R  N N  N  II  N N  N  G       !!!           |
|           W WW W  AAAAAA  RRRRR   N  N N  II  N  N N  G  GGG   !            |
|           WW  WW  A    A  R   R   N   NN  II  N   NN  G    G                |
|           W    W  A    A  R    R  N    N  II  N    N   GGGG   !!!           |
|     For optimal performance we recommend to set                             |
|       NCORE = 2 up to number-of-cores-per-socket                            |
|     This setting can greatly improve the performance of VASP for DFT.       |
|     The default, NCORE=1 might be grossly inefficient on modern             |
|     multi-core architectures or massively parallel machines. Do your        |
|     Unfortunately you need to use the default for GW and RPA                |
|     calculations (for HF NCORE is supported but not extensively tested      |
|     yet).                                                                   |

   TITEL  = PAW Ti_sv 26Sep2005
   POMASS =   47.880; ZVAL   =   12.000    mass and valenz
   ENMAX  =  274.719; ENMIN  =  206.039 eV

   TITEL  = PAW O 22Mar2012
   POMASS =   16.000; ZVAL   =    6.000    mass and valenz
   ENMAX  =  400.000; ENMIN  =  300.000 eV

 Optimization of the real space projectors (new method)

 maximal supplied QI-value         = 16.25
 optimisation between [QCUT,QGAM] = [ 11.38, 22.75] = [ 36.24,144.96] Ry
 Optimized for a Real-space Cutoff    1.27 Angstroem

   l    n(q)    QCUT    max X(q) W(low)/X(q) W(high)/X(q)  e(spline)
   0      9    11.376    12.197    0.54E-04    0.21E-04    0.24E-07
   0      9    11.376    11.139    0.92E-04    0.47E-05    0.33E-07
   1      8    11.376     4.011    0.10E-03    0.98E-04    0.29E-07
   1      8    11.376     6.084    0.81E-04    0.18E-03    0.11E-06
   2      8    11.376    46.184    0.13E-03    0.88E-03    0.24E-06
   2      8    11.376    41.673    0.13E-03    0.85E-03    0.23E-06
 Optimization of the real space projectors (new method)

 maximal supplied QI-value         = 24.76
 optimisation between [QCUT,QGAM] = [ 11.39, 22.77] = [ 36.31,145.25] Ry
 Optimized for a Real-space Cutoff    1.10 Angstroem

   l    n(q)    QCUT    max X(q) W(low)/X(q) W(high)/X(q)  e(spline)
   0      7    11.387    20.659    0.22E-03    0.50E-03    0.19E-06
   0      7    11.387    15.633    0.22E-03    0.53E-03    0.20E-06
   1      7    11.387     5.864    0.22E-03    0.73E-03    0.24E-06
   1      7    11.387     5.285    0.18E-03    0.60E-03    0.21E-06
  PAW Ti_sv 26Sep2005                   :
  PAW O 22Mar2012                       :

 POSCAR: Ti  O
  positions in direct lattice
  velocities in cartesian coordinates
 exchange correlation table for  LEXCH =        2
   RHO(1)=    0.500       N(1)  =     2000
   RHO(2)=  100.500       N(2)  =     4000

 ion  position               nearest neighbor table
   1  0.500  0.125  0.288-  84 1.93 104 1.93 103 1.93  83 1.93  81 1.96  82 1.96
   2  0.750  0.000  0.288-  82 1.93 141 1.93 160 1.93 220 1.93  87 1.96
   3  0.750  0.125  0.394-  87 1.93 107 1.93  88 1.93 108 1.93  85 1.96 165 1.96
   4  0.500  0.000  0.394-  85 1.93  86 1.93 144 1.93 145 1.93  84 1.96  91 1.96
   5  0.500  0.125  0.500-  91 1.93  92 1.93 111 1.93 112 1.93  89 1.96  90 1.96
   6  0.750  0.000  0.500-  90 1.93 149 1.93 168 1.93 228 1.93  88 1.96  95 1.97
   7  0.751  0.125  0.604-  95 1.88 115 1.89 173 1.91  93 1.96 175 2.00 195 2.00  37 2.92
   8  0.500  1.000  0.611-  99 1.89  94 1.94 153 1.94 152 1.94  93 1.94  92 2.13  38 2.91  18 2.91

   9  0.500  0.121  0.722- 100 1.80 120 1.83  97 2.00  98 2.00  99 2.03 119 2.10  19 2.78  39 2.83

[...]

  40  0.251  0.750  0.708- 155 1.79 237 1.91 217 1.91 156 1.93 137 1.97  10 2.92
  41  0.000  0.125  0.288- 163 1.93 183 1.93 182 1.93 162 1.93 160 1.96 161 1.96
  42  0.250  0.000  0.288-  81 1.93 140 1.93 161 1.93 221 1.93 166 1.96
  43  0.250  0.125  0.394- 166 1.93 186 1.93 167 1.93 187 1.93  86 1.96 164 1.96
  44  0.000  0.000  0.394- 164 1.93 165 1.93 224 1.93 225 1.93 163 1.96 170 1.96
  45  0.000  0.125  0.500- 170 1.93 171 1.93 190 1.93 191 1.93 168 1.96 169 1.96
  46  0.250  0.000  0.500-  89 1.93 148 1.93 169 1.93 229 1.93 167 1.96 174 1.97
  47  0.249  0.125  0.604- 174 1.88 194 1.89 172 1.91  94 1.96  96 2.00 116 2.00  77 2.92
  48  0.000  0.000  0.609- 178 1.87 172 1.95 232 1.95 173 1.95 233 1.95 171 2.05
  49  0.000  0.125  0.718- 179 1.81 199 1.82 176 2.02 177 2.02 178 2.05 198 2.06  59 2.92
  50  0.750  1.000  0.708- 175 1.79 236 1.92 176 1.92 157 1.93  98 1.93  80 2.92  60 2.92
  51  0.000  0.375  0.288- 183 1.93 203 1.93 202 1.93 182 1.93 180 1.96 181 1.96
  52  0.250  0.250  0.288-  81 1.93 101 1.93 161 1.93 181 1.93 186 1.96
  53  0.250  0.375  0.394- 186 1.93 206 1.93 187 1.93 207 1.93 106 1.96 184 1.96
  54  0.000  0.250  0.394- 164 1.93 165 1.93 184 1.93 185 1.93 183 1.96 190 1.96
  55  0.000  0.375  0.500- 190 1.93 191 1.93 210 1.93 211 1.93 188 1.96 189 1.96
  56  0.250  0.250  0.500-  89 1.93 109 1.93 169 1.93 189 1.93 187 1.96 194 1.97
  57  0.249  0.375  0.604- 194 1.88 214 1.89 192 1.91 114 1.97 136 1.99 116 2.00
  58  1.000  0.250  0.609- 198 1.87 172 1.95 173 1.95 192 1.95 193 1.95 191 2.05
  59  1.000  0.375  0.718- 199 1.81 219 1.81 197 2.04 196 2.04 198 2.05 218 2.06  49 2.92
  60  0.749  0.250  0.708- 195 1.79 176 1.91 196 1.91  98 1.93 118 1.97  50 2.92
  61  0.000  0.625  0.288- 203 1.93 223 1.93 222 1.93 202 1.93 200 1.96 201 1.96
  62  0.250  0.500  0.288- 101 1.93 121 1.93 181 1.93 201 1.93 206 1.96
  63  0.250  0.625  0.394- 206 1.93 226 1.93 207 1.93 227 1.93 126 1.96 204 1.96
  64  0.000  0.500  0.394- 184 1.93 185 1.93 204 1.93 205 1.93 203 1.96 210 1.96
  65  0.000  0.625  0.500- 210 1.93 211 1.93 230 1.93 231 1.93 208 1.96 209 1.96
  66  0.250  0.500  0.500- 109 1.93 129 1.93 189 1.93 209 1.93 207 1.96 214 1.97
  67  0.249  0.625  0.604- 234 1.88 214 1.89 212 1.91 134 1.97 136 1.99 155 2.00
  68  1.000  0.500  0.609- 218 1.87 213 1.95 193 1.95 192 1.95 212 1.95 211 2.05
  69  0.000  0.625  0.718- 239 1.81 219 1.81 217 2.04 216 2.04 238 2.05 218 2.06  79 2.92
  70  0.749  0.500  0.707- 215 1.79 216 1.92 196 1.92 138 1.94 118 1.94
  71  0.000  0.875  0.288- 163 1.93 223 1.93 222 1.93 162 1.93 220 1.96 221 1.96
  72  0.250  0.750  0.288- 121 1.93 140 1.93 201 1.93 221 1.93 226 1.96
  73  0.250  0.875  0.394- 166 1.93 226 1.93 167 1.93 227 1.93 145 1.96 224 1.96
  74  0.000  0.750  0.394- 204 1.93 205 1.93 224 1.93 225 1.93 223 1.96 230 1.96
  75  0.000  0.875  0.500- 170 1.93 171 1.93 230 1.93 231 1.93 228 1.96 229 1.96
  76  0.250  0.750  0.500- 129 1.93 148 1.93 209 1.93 229 1.93 227 1.96 234 1.97
  77  0.249  0.875  0.604- 174 1.88 234 1.89 232 1.91 153 1.96  96 2.00 155 2.00  47 2.92
  78  0.000  0.750  0.609- 238 1.87 232 1.95 233 1.95 212 1.95 213 1.95 231 2.05
  79  0.000  0.875  0.718- 179 1.81 239 1.82 236 2.02 237 2.02 178 2.05 238 2.06  69 2.92
  80  0.749  0.750  0.708- 235 1.79 236 1.91 216 1.91 157 1.93 138 1.97  50 2.92
  81  0.348  0.125  0.288-  42 1.93  52 1.93   1 1.96
  82  0.652  0.125  0.288-   2 1.93  12 1.93   1 1.96
  83  0.500  0.000  0.247-   1 1.93  31 1.93
  84  0.500  0.000  0.330-   1 1.93  31 1.93   4 1.96
  85  0.598  0.125  0.394-   4 1.93  14 1.93   3 1.96
  86  0.402  0.125  0.394-   4 1.93  14 1.93  43 1.96
  87  0.750  0.000  0.353-   3 1.93  33 1.93   2 1.96
  88  0.750  0.000  0.436-   3 1.93  33 1.93   6 1.96
  89  0.348  0.125  0.500-  46 1.93  56 1.93   5 1.96
  90  0.652  0.125  0.500-   6 1.93  16 1.93   5 1.96
  91  0.500  0.000  0.458-   5 1.93  35 1.93   4 1.96
  92  0.500  0.000  0.542-   5 1.93  35 1.93   8 2.13
  93  0.599  0.125  0.607-  18 1.92   8 1.94   7 1.96
  94  0.401  0.125  0.607-  18 1.92   8 1.94  47 1.96
  95  0.749  1.000  0.565-  37 1.88   7 1.88   6 1.97
  96  0.252  1.000  0.649-  10 1.79  77 2.00  47 2.00
  97  0.345  0.125  0.719-  20 1.93  10 1.93   9 2.00
  98  0.655  0.125  0.719-  60 1.93  50 1.93   9 2.00
  99  0.500  0.000  0.674-   8 1.89   9 2.03  39 2.03
[...]
 225  0.902  0.875  0.394-  44 1.93  74 1.93  33 1.96
 226  0.250  0.750  0.353-  63 1.93  73 1.93  72 1.96
 227  0.250  0.750  0.436-  63 1.93  73 1.93  76 1.96
 228  0.848  0.875  0.500-   6 1.93  36 1.93  75 1.96
 229  0.152  0.875  0.500-  46 1.93  76 1.93  75 1.96
 230  0.000  0.750  0.458-  65 1.93  75 1.93  74 1.96
 231  0.000  0.750  0.542-  65 1.93  75 1.93  78 2.05
 232  0.101  0.875  0.606-  77 1.91  78 1.95  48 1.95
 233  0.899  0.875  0.606-  37 1.91  78 1.95  48 1.95
 234  0.252  0.750  0.565-  67 1.88  77 1.89  76 1.97
 235  0.749  0.750  0.649-  80 1.79  27 2.00  37 2.00
 236  0.843  0.874  0.717-  80 1.91  50 1.92  79 2.02
 237  0.157  0.874  0.717-  40 1.91  10 1.92  79 2.02
 238  0.000  0.749  0.670-  78 1.87  69 2.05  79 2.06
 239  0.000  0.750  0.753-  69 1.81  79 1.82

IMPORTANT INFORMATION: All symmetrisations will be switched off!
NOSYMM: (Re-)initialisation of all symmetry stuff for point group C_1.

                                     Primitive cell

  volume of cell :    4576.1066

  direct lattice vectors                    reciprocal lattice vectors
    12.878382581  0.000000000  0.000000000     0.077649502  0.000000000  0.000000000
     0.000000000 11.686844333  0.000000000     0.000000000  0.085566298  0.000000000
     0.000000000  0.000000000 30.404478239     0.000000000  0.000000000  0.032889892

  length of vectors
    12.878382581 11.686844333 30.404478239     0.077649502  0.085566298  0.032889892

  position of ions in fractional coordinates (direct lattice)
     0.500000000  0.125000000  0.288215695
     0.750000000  0.000000000  0.288215695
     0.750000000  0.125000000  0.394107848
     0.500000000  0.000000000  0.394107848
     0.500000000  0.125000000  0.500000000
     0.750000000  0.000000000  0.500000000
     0.751093100  0.124924817  0.604023806
     0.499997235  0.999998031  0.611463548
     0.500004652  0.121213679  0.721762574
     0.249974592  0.999996837  0.707528198
     0.500000000  0.375000000  0.288215695
     0.750000000  0.250000000  0.288215695
     0.750000000  0.375000000  0.394107848
     0.500000000  0.250000000  0.394107848
     0.500000000  0.375000000  0.500000000
     0.750000000  0.250000000  0.500000000
     0.751249712  0.375017701  0.604107681
     0.500006034  0.247981243  0.603826526
     0.499998297  0.356277608  0.707157905
     0.250862922  0.249824888  0.707703061
     0.500000000  0.625000000  0.288215695
     0.750000000  0.500000000  0.288215695
     0.750000000  0.625000000  0.394107848
[...]
   0.384E-03 -.676E-03 0.258E+04   -.721E-03 0.608E-03 -.258E+04   0.328E-04 -.331E-04 0.648E+00   0.261E-03 0.251E-04 0.116E-02
   0.236E-02 0.491E+01 -.368E+02   -.297E-02 -.527E+01 0.358E+02   0.819E-04 0.804E-01 0.263E+00   0.152E-03 0.755E-04 0.129E-02
   -.586E+01 -.144E-01 -.332E+02   0.615E+01 0.144E-01 0.318E+02   -.664E-01 0.133E-03 0.576E+00   0.215E-03 0.932E-05 0.115E-02
   0.939E+01 0.710E+01 -.261E+04   -.919E+01 -.708E+01 0.261E+04   -.210E+00 -.160E-01 0.918E+00   -.540E-04 0.649E-03 0.487E-03
   0.198E-01 0.409E-01 -.270E+04   -.212E-01 -.408E-01 0.270E+04   0.404E-04 -.624E-03 0.474E+00   0.375E-03 0.173E-04 0.531E-03
   -.167E-01 0.309E+03 -.509E+04   0.168E-01 -.307E+03 0.509E+04   -.230E-03 -.161E+01 0.101E+01   0.557E-03 0.759E-04 -.696E-03
   -.733E+02 0.240E-02 -.520E+04   0.733E+02 -.325E-02 0.519E+04   0.282E-01 0.537E-03 0.283E+01   0.221E-03 0.685E-05 -.108E-02
   -.251E-03 0.376E-01 0.512E+04   -.339E-05 -.243E-01 -.513E+04   -.633E-04 0.161E-01 0.116E+01   0.233E-03 -.151E-03 -.460E-03
   -.164E+00 0.501E-01 0.534E+04   0.187E+00 -.486E-01 -.533E+04   -.629E-02 -.409E-03 -.560E+01   0.105E-04 0.205E-04 0.834E-03
   -.878E+00 0.658E-01 0.259E+04   0.967E+00 -.630E-01 -.259E+04   -.234E-01 0.182E-01 -.447E-01   0.923E-05 0.242E-04 0.128E-02
   -.588E-03 0.631E-01 0.258E+04   0.180E-03 -.390E-01 -.258E+04   0.350E-04 -.368E-02 0.608E+00   0.301E-03 0.247E-04 0.114E-02
   -.165E-02 -.652E+01 -.371E+02   0.103E-02 0.784E+01 0.368E+02   0.716E-04 -.286E+00 0.107E+00   0.244E-03 -.937E-04 0.110E-02
   -.654E+01 0.123E+01 -.305E+02   0.678E+01 -.115E+01 0.290E+02   -.664E-01 -.156E-01 0.600E+00   0.152E-03 0.204E-03 0.138E-02
   0.257E+01 0.564E+01 -.259E+04   -.242E+01 -.563E+01 0.259E+04   -.156E+00 -.214E-01 0.943E+00   -.149E-04 0.381E-03 0.107E-03
   0.121E-01 0.258E+02 -.258E+04   -.136E-01 -.255E+02 0.258E+04   0.857E-03 -.282E+00 0.511E+00   0.662E-03 -.339E-04 0.615E-03
   -.357E-01 0.452E+02 -.522E+04   0.334E-01 -.444E+02 0.522E+04   0.253E-05 -.697E+00 -.121E+01   0.635E-03 -.539E-03 -.947E-03
   -.238E+02 0.446E+02 -.517E+04   0.234E+02 -.445E+02 0.517E+04   0.417E+00 -.207E+00 0.269E+01   0.174E-03 -.328E-03 -.786E-03
   0.186E-03 -.396E-01 0.512E+04   0.786E-04 0.394E-01 -.512E+04   0.328E-04 -.188E-01 0.115E+01   -.196E-03 0.290E-04 -.356E-03
   0.157E+00 0.542E-06 0.534E+04   -.178E+00 -.482E-04 -.533E+04   0.593E-02 0.104E-03 -.560E+01   -.832E-06 0.215E-04 0.821E-03
   0.878E+00 -.655E-01 0.259E+04   -.967E+00 0.627E-01 -.259E+04   0.235E-01 -.182E-01 -.449E-01   0.446E-05 0.482E-05 0.151E-02
   0.502E-03 0.516E-03 0.258E+04   -.885E-04 -.514E-03 -.258E+04   0.646E-04 -.320E-04 0.501E+00   -.323E-03 0.133E-05 0.109E-02
   -.146E-02 -.107E+01 -.448E+02   0.193E-02 0.109E+01 0.451E+02   -.615E-04 0.177E-02 -.889E-01   -.193E-03 0.630E-05 0.987E-03
   0.342E+01 -.324E-02 -.299E+02   -.356E+01 0.335E-02 0.285E+02   0.282E-01 0.353E-04 0.563E+00   -.764E-04 -.151E-04 0.128E-02
   -.257E+01 -.565E+01 -.259E+04   0.242E+01 0.564E+01 0.259E+04   0.154E+00 0.209E-01 0.942E+00   0.421E-04 -.417E-04 -.112E-03
   -.663E-02 0.213E-02 -.265E+04   0.729E-02 -.176E-02 0.266E+04   -.784E-03 -.249E-03 -.821E+00   -.695E-03 -.607E-05 0.152E-03
   -.127E-01 -.835E+01 -.511E+04   0.102E-01 0.838E+01 0.511E+04   0.121E-02 -.321E-01 -.141E+01   -.659E-03 -.594E-05 -.794E-03
   -.782E+01 -.386E-01 -.514E+04   0.778E+01 0.394E-01 0.514E+04   0.454E-01 0.700E-03 0.270E+01   0.610E-04 -.101E-03 -.122E-02
   0.183E-03 -.403E-01 0.512E+04   0.130E-03 0.409E-01 -.512E+04   0.343E-04 0.186E-01 0.115E+01   -.240E-03 0.874E-04 -.414E-03
   0.164E+00 -.503E-01 0.534E+04   -.187E+00 0.487E-01 -.533E+04   0.631E-02 0.477E-03 -.560E+01   0.871E-05 0.188E-04 0.894E-03
   0.998E+00 -.183E+00 0.259E+04   -.110E+01 0.169E+00 -.259E+04   0.283E-01 0.227E-01 -.401E-01   -.227E-04 0.599E-05 0.143E-02
   -.521E-03 -.250E+00 0.258E+04   0.875E-03 0.247E+00 -.258E+04   -.399E-05 0.696E-03 0.486E+00   -.299E-03 0.520E-05 0.109E-02
   -.809E-02 -.120E+01 -.469E+02   0.875E-02 0.123E+01 0.473E+02   -.200E-03 -.121E-01 -.999E-01   -.135E-03 -.248E-04 0.909E-03
   0.654E+01 -.124E+01 -.304E+02   -.678E+01 0.116E+01 0.290E+02   0.665E-01 0.156E-01 0.599E+00   -.144E-03 -.197E-04 0.131E-02
   -.937E+01 -.703E+01 -.261E+04   0.917E+01 0.701E+01 0.261E+04   0.209E+00 0.159E-01 0.918E+00   0.474E-05 0.182E-04 0.108E-03
   -.813E-02 -.616E+01 -.266E+04   0.897E-02 0.616E+01 0.266E+04   -.781E-04 0.274E-03 -.835E+00   -.420E-03 0.884E-04 0.154E-03
   0.226E-01 -.136E+02 -.512E+04   -.230E-01 0.136E+02 0.512E+04   0.725E-03 -.139E-01 -.140E+01   -.597E-03 0.258E-04 -.798E-03
   0.238E+02 -.447E+02 -.517E+04   -.234E+02 0.445E+02 0.517E+04   -.418E+00 0.207E+00 0.269E+01   0.522E-04 -.430E-04 -.111E-02
[...]
   0.246E+00 0.458E-01 0.188E+04   -.278E+00 -.431E-01 -.188E+04   0.421E-01 -.590E-02 0.122E+01   -.429E-05 -.138E-04 0.207E-03
   0.938E+00 0.188E+00 0.716E+03   -.102E+01 -.173E+00 -.712E+03   0.107E+00 -.231E-01 -.409E+01   -.143E-04 -.623E-05 0.410E-03
   -.675E+02 0.529E+00 -.166E+02   0.722E+02 -.526E+00 0.162E+02   -.509E+01 -.171E-01 0.620E+00   -.129E-03 0.207E-06 0.446E-03
   0.675E+02 0.528E+00 -.166E+02   -.722E+02 -.526E+00 0.162E+02   0.509E+01 -.169E-01 0.619E+00   -.334E-04 -.268E-04 0.334E-03
   0.777E-03 0.375E+00 0.556E+03   -.580E-03 -.379E+00 -.561E+03   -.221E-03 0.853E-02 0.475E+01   -.516E-04 0.566E-06 0.383E-03
   0.120E-02 0.132E+01 -.616E+03   -.811E-03 -.133E+01 0.623E+03   -.448E-03 0.946E-02 -.606E+01   -.983E-04 0.122E-04 0.149E-03
   -.326E+02 0.225E+01 -.131E+04   0.352E+02 -.223E+01 0.131E+04   -.269E+01 -.211E-01 0.562E+00   0.815E-04 -.981E-05 -.664E-04
   0.326E+02 0.224E+01 -.131E+04   -.352E+02 -.222E+01 0.131E+04   0.268E+01 -.225E-01 0.562E+00   -.663E-03 0.671E-04 -.458E-04
   -.344E+01 0.230E+01 -.735E+03   0.400E+01 -.229E+01 0.729E+03   -.555E+00 -.115E-01 0.626E+01   -.319E-05 -.114E-03 0.266E-03
   0.597E+01 0.763E+01 -.184E+04   -.637E+01 -.757E+01 0.184E+04   0.402E+00 -.572E-01 0.332E+01   -.369E-05 0.227E-03 -.582E-03
   -.370E+02 0.506E+01 -.267E+04   0.435E+02 -.502E+01 0.267E+04   -.651E+01 -.231E-01 -.398E+01   -.244E-04 0.300E-06 -.266E-03
   0.371E+02 0.506E+01 -.267E+04   -.436E+02 -.503E+01 0.267E+04   0.650E+01 -.230E-01 -.398E+01   0.127E-04 -.166E-04 -.801E-04
   0.352E-02 0.696E+01 -.206E+04   -.419E-02 -.703E+01 0.206E+04   0.914E-03 0.700E-01 -.111E+01   -.145E-03 -.148E-04 -.225E-03
   0.660E-02 0.382E+01 -.310E+04   -.827E-02 -.357E+01 0.312E+04   0.206E-02 -.252E+00 -.211E+02   -.618E-04 0.404E-04 -.102E-03
   -.134E-01 -.717E-02 0.121E+02   -.371E-11 -.227E-12 -.100E-10   0.672E-02 0.134E-01 -.117E+02   0.910E-03 -.144E-04 0.512E-01

 POSITION                                       TOTAL-FORCE (eV/Angst)
      6.43919      1.46086      8.76305        -0.000068     -0.029289     -3.736798
      9.65879      0.00000      8.76305         0.015144     -0.000106      2.780406
      9.65879      1.46086     11.98264         0.065041     -0.020868      0.348645
      6.43919      0.00000     11.98264        -0.000067     -0.000026     -1.153592
      6.43919      1.46086     15.20224        -0.000178     -1.039166     -0.215141
      9.65879      0.00000     15.20224         0.113926      0.000138     -0.870919
      9.67286      1.45998     18.36503        -0.002020      0.002854      0.052023
      6.43916     11.68682     18.59123         0.000126     -0.000056      0.011430
      6.43925      1.41661     21.94481        -0.001343     -0.017576     -0.012287
      3.21927     11.68681     21.51203         0.000747      0.000428      0.071550
      6.43919      4.38257      8.76305        -0.000073      0.010834     -3.745711
      9.65879      2.92171      8.76305         0.016522     -0.001176      2.777839
      9.65879      4.38257     11.98264         0.074784      0.007914      0.341198
      6.43919      2.92171     11.98264        -0.000020     -0.020464     -1.207476
      6.43919      4.38257     15.20224        -0.000325      0.279660     -0.749879
      9.65879      2.92171     15.20224         0.170163     -0.064853     -0.877321
      9.67488      4.38277     18.36758        -0.011642      0.002048      0.055708
      6.43927      2.89812     18.35903         0.000264      0.014116      0.034710
      6.43917      4.16376     21.50077        -0.000032      0.031239      0.091870
      3.23071      2.91966     21.51734         0.008997      0.016431      0.070239
      6.43919      7.30428      8.76305        -0.000042     -0.010900     -3.745598
      9.65879      5.84342      8.76305         0.017095      0.000113      2.779329
      9.65879      7.30428     11.98264         0.074788     -0.008231      0.341035
      6.43919      5.84342     11.98264        -0.000019     -0.000101     -1.269184
      6.43919      7.30428     15.20224        -0.000350     -0.279567     -0.749795
      9.65879      5.84342     15.20224         0.215852      0.000132     -0.876036
      9.67498      7.30391     18.36777        -0.012980      0.000426      0.052697
      6.43917      5.84346     18.46467        -0.000900     -0.000585      0.018562
      6.43919      7.52308     21.50080         0.000421     -0.030838      0.090223
      3.23556      5.84341     21.51108         0.015467     -0.000324      0.060271
      6.43919     10.22599      8.76305        -0.000061      0.029255     -3.736714
      9.65879      8.76513      8.76305         0.016533      0.001112      2.777537
      9.65879     10.22599     11.98264         0.065034      0.020970      0.348553
      6.43919      8.76513     11.98264        -0.000049      0.020486     -1.207420
      6.43919     10.22599     15.20224        -0.000285      1.038916     -0.214959
      9.65879      8.76513     15.20224         0.170066      0.064604     -0.876446
      9.67297     10.22684     18.36492        -0.003783     -0.003115      0.053117
      6.43932      8.78872     18.35905         0.000063     -0.014026      0.033995
      6.43930     10.27022     21.94481        -0.001554      0.018457     -0.012863
      3.23109      8.76710     21.51717         0.006016     -0.013172      0.070532
      0.00000      1.46086      8.76305         0.000125     -0.018969     -3.710270
      3.21960      0.00000      8.76305        -0.015201      0.000052      2.780374
      3.21960      1.46086     11.98264        -0.064938     -0.020971      0.348591
      0.00000      0.00000     11.98264         0.000179     -0.000054     -0.978428
      0.00000      1.46086     15.20224         0.000238      0.018609      0.240404
      3.21960      0.00000     15.20224        -0.113937      0.000105     -0.871095
      3.20554      1.46004     18.36492         0.002867      0.003298      0.052377
      0.00007      0.00002     18.51104        -0.000793      0.000086      0.015676
      0.00006      1.46113     21.82135        -0.001861      0.001782      0.041270
      9.65924     11.68680     21.51208         0.002227      0.001353      0.071835
      0.00000      4.38257      8.76305         0.000131      0.019246     -3.710160
      3.21960      2.92171      8.76305        -0.016491     -0.001132      2.777327
      3.21960      4.38257     11.98264        -0.074740      0.008041      0.341141
      0.00000      2.92171     11.98264         0.000074     -0.001996     -0.993391
      0.00000      4.38257     15.20224         0.000348      0.015807      0.268460
      3.21960      2.92171     15.20224        -0.170101     -0.064576     -0.876203
      3.20346      4.38293     18.36782         0.011905     -0.002124      0.051595
     12.87837      2.92135     18.51332         0.000369      0.001280      0.010650
     12.87836      4.38018     21.83344        -0.000230      0.008039      0.027674
      9.64744      2.91971     21.51722        -0.007433      0.013605      0.071666
[...]
     11.61533     10.22599     11.98264        -0.372619     -0.005949      0.100770
      3.21960      8.76513     10.71960         0.009599     -0.003225     -1.358224
      3.21960      8.76513     13.24569         0.020851     -0.008158      0.152370
     10.92183     10.22599     15.20224        -0.398600     -0.014459      0.163450
      1.95655     10.22599     15.20224         0.398315     -0.014372      0.163234
      0.00000      8.76513     13.93919        -0.000051      0.004377      0.188498
      0.00000      8.76513     16.46529        -0.000136      0.001695      0.297822
      1.29528     10.22500     18.43976        -0.069623     -0.002280     -0.004903
     11.58313     10.22502     18.43977         0.069566     -0.002377     -0.005245
      3.24205      8.76250     17.17508         0.001043     -0.000922     -0.034290
      9.63968      8.76462     19.72992         0.000014      0.003435     -0.051948
     10.86128     10.21530     21.81301         0.005611      0.014723     -0.013089
      2.01736     10.21534     21.81297        -0.007700      0.014413     -0.012328
      0.00001      8.75640     20.38033         0.000126     -0.002181     -0.023651
      0.00001      8.76552     22.89995         0.000350      0.000914     -0.022914
    total drift:                               -0.005730      0.006219      0.450290

  FREE ENERGIE OF THE ION-ELECTRON SYSTEM (eV)
  free  energy   TOTEN  =     -2318.01321002 eV

  energy  without entropy=    -2317.96505438  energy(sigma->0) =    -2317.98913220

 total charge

# of ion       s       p       d       tot
    1        2.232   6.327   1.823  10.382
    2        2.213   6.270   1.794  10.277
    3        2.234   6.327   1.785  10.346
    4        2.235   6.330   1.784  10.349
    5        2.234   6.329   1.784  10.347
    6        2.232   6.324   1.784  10.341
    7        2.235   6.325   1.818  10.378
    8        2.227   6.305   1.772  10.304
    9        2.232   6.318   1.876  10.426
   10        2.243   6.304   1.879  10.426
   11        2.232   6.327   1.823  10.382
   12        2.213   6.270   1.794  10.277
   13        2.234   6.327   1.785  10.346
   14        2.235   6.329   1.785  10.349
   15        2.234   6.329   1.782  10.345
   16        2.232   6.325   1.786  10.342
   17        2.235   6.325   1.819  10.378
   18        2.233   6.321   1.791  10.345
   19        2.253   6.311   1.958  10.522
   20        2.242   6.301   1.878  10.421
   21        2.232   6.327   1.823  10.382
   22        2.213   6.270   1.794  10.277
   23        2.234   6.327   1.785  10.346
   24        2.235   6.329   1.785  10.349
   25        2.234   6.329   1.782  10.345
   26        2.232   6.324   1.785  10.341
   27        2.235   6.325   1.819  10.378
   28        2.223   6.303   1.754  10.280
   29        2.253   6.311   1.958  10.522
   30        2.244   6.306   1.880  10.431
   31        2.232   6.327   1.823  10.382
   32        2.213   6.270   1.794  10.277
   33        2.234   6.327   1.785  10.346
   34        2.235   6.329   1.785  10.349
   35        2.234   6.329   1.784  10.347
   36        2.232   6.324   1.786  10.342
   37        2.235   6.325   1.818  10.378
   38        2.233   6.322   1.791  10.345
   39        2.232   6.318   1.876  10.426
   40        2.242   6.301   1.878  10.421
   41        2.232   6.327   1.823  10.382
   42        2.213   6.270   1.794  10.277
   43        2.234   6.327   1.785  10.346
   44        2.235   6.330   1.784  10.349
   45        2.234   6.329   1.784  10.348
   46        2.232   6.324   1.784  10.341
   47        2.235   6.325   1.818  10.378
   48        2.231   6.315   1.781  10.327
   49        2.232   6.314   1.845  10.391
   50        2.243   6.304   1.879  10.426
   51        2.232   6.327   1.823  10.382
   52        2.213   6.270   1.794  10.277
   53        2.234   6.327   1.785  10.346
   54        2.235   6.330   1.784  10.349
   55        2.234   6.329   1.784  10.348
   56        2.232   6.325   1.786  10.342
   57        2.235   6.325   1.819  10.378
   58        2.231   6.315   1.781  10.327
   59        2.229   6.309   1.845  10.384
   60        2.242   6.301   1.878  10.421
[...]
  225        1.564   3.494   0.000   5.058
  226        1.562   3.483   0.000   5.045
  227        1.564   3.491   0.000   5.055
  228        1.565   3.492   0.000   5.057
  229        1.565   3.492   0.000   5.057
  230        1.565   3.495   0.000   5.060
  231        1.563   3.476   0.000   5.039
  232        1.564   3.493   0.000   5.056
  233        1.564   3.493   0.000   5.056
  234        1.567   3.509   0.000   5.076
  235        1.566   3.505   0.000   5.071
  236        1.562   3.485   0.000   5.047
  237        1.562   3.485   0.000   5.047
  238        1.561   3.466   0.000   5.027
  239        1.582   3.434   0.000   5.016
tot        427.5091058.742 144.9011631.152