 vasp.6.2.0 18Jan21 (build May 10 2021 20:50:33) complex
 executed on        HPECrayEX_GCC date 2021.10.30  04:41:19

 INCAR:
   SYSTEM = TiO2-rutile
   ISMEAR = 0
   SIGMA = 0.05
   EDIFF = 1E-5
   ALGO = ALL
   ISYM = 0
   ISTART = 1
   IBRION = -1
   NSW = 0
   EDIFFG = -0.01
   ENCUT = 500
   PREC = Normal
   LASPH = .TRUE.
   LREAL = Auto
   ISPIN = 1
   NELM = 28
   NCORE = 4
   KPAR = 2
   LHFCALC = .TRUE.
   LWAVE = .TRUE.
   LCHARG = .FALSE.
   LORBIT = 11

 POTCAR:    PAW_PBE O 08Apr2002
 POTCAR:    PAW_PBE Ti_sv 26Sep2005
 POTCAR:    PAW_PBE O 08Apr2002
   VRHFIN =O: s2p4

   TITEL  = PAW_PBE O 08Apr2002
   POMASS =   16.000; ZVAL   =    6.000    mass and valenz
   ENMAX  =  400.000; ENMIN  =  300.000 eV

   TITEL  = PAW_PBE Ti_sv 26Sep2005
   POMASS =   47.880; ZVAL   =   12.000    mass and valenz
   ENMAX  =  274.610; ENMIN  =  205.957 eV

 Optimization of the real space projectors (new method)

 maximal supplied QI-value         = 24.76
 optimisation between [QCUT,QGAM] = [ 11.39, 22.77] = [ 36.31,145.25] Ry
 Optimized for a Real-space Cutoff    1.00 Angstroem

   l    n(q)    QCUT    max X(q) W(low)/X(q) W(high)/X(q)  e(spline)
   0      7    11.387    20.381    0.39E-03    0.13E-02    0.15E-06
   0      7    11.387    15.268    0.42E-03    0.14E-02    0.17E-06
   1      6    11.387     5.964    0.41E-03    0.11E-02    0.17E-06
   1      6    11.387     5.382    0.39E-03    0.87E-03    0.15E-06
 Optimization of the real space projectors (new method)

 maximal supplied QI-value         = 16.25
 optimisation between [QCUT,QGAM] = [ 11.38, 22.75] = [ 36.24,144.96] Ry
 Optimized for a Real-space Cutoff    1.27 Angstroem

   l    n(q)    QCUT    max X(q) W(low)/X(q) W(high)/X(q)  e(spline)
   0      9    11.376    12.277    0.53E-04    0.25E-04    0.25E-07
   0      9    11.376    11.419    0.89E-04    0.67E-05    0.35E-07
   1      8    11.376     4.010    0.13E-03    0.11E-03    0.29E-07
   1      8    11.376     6.182    0.94E-04    0.19E-03    0.11E-06
   2      8    11.376    47.177    0.13E-03    0.88E-03    0.24E-06
   2      8    11.376    42.437    0.13E-03    0.86E-03    0.23E-06
  PAW_PBE O 08Apr2002                   :
  PAW_PBE Ti_sv 26Sep2005               :

 POSCAR:  O Ti
  positions in direct lattice
 exchange correlation table for  LEXCH =        8
   RHO(1)=    0.500       N(1)  =     2000
   RHO(2)=  100.500       N(2)  =     4000

 ion  position               nearest neighbor table
   1  0.098  0.125  0.264- 162 1.95 172 1.95 161 1.98
   2  0.402  0.125  0.264- 202 1.95 212 1.95 161 1.98
   3  0.250  0.000  0.218- 161 1.95 191 1.95
   4  0.250  0.000  0.310- 161 1.95 191 1.95 164 1.98
   5  0.348  0.125  0.382- 164 1.95 174 1.95 203 1.98
   6  0.152  0.125  0.382- 164 1.95 174 1.95 163 1.98
   7  0.000  0.000  0.336- 163 1.95 193 1.95 162 1.98
   8  0.000  0.000  0.428- 163 1.95 193 1.95 166 1.98
   9  0.098  0.125  0.500- 166 1.95 176 1.95 165 1.98
  10  0.402  0.125  0.500- 206 1.95 216 1.95 165 1.98
  11  0.250  0.000  0.454- 165 1.95 195 1.95 164 1.98
  12  0.250  0.000  0.546- 165 1.95 195 1.95 168 2.10
  13  0.350  0.125  0.618- 167 1.95 168 1.97 178 1.97
  14  0.150  0.125  0.618- 207 1.95 168 1.97 178 1.97
  15  0.000  1.000  0.572- 207 1.90 237 1.90 166 2.00
  16  0.000  0.000  0.665- 170 1.81 207 2.01 237 2.01
  17  0.094  0.125  0.742- 170 1.94 180 1.94 169 2.04
  18  0.406  0.125  0.742- 210 1.94 220 1.94 169 2.04
  19  0.250  0.500  0.690- 188 1.86 189 2.09 179 2.09
  20  0.250  0.000  0.782- 199 1.83 169 1.83
  21  0.098  0.375  0.264- 172 1.95 182 1.95 171 1.98
  22  0.402  0.375  0.264- 212 1.95 222 1.95 171 1.98
  23  0.250  0.250  0.218- 161 1.95 171 1.95
  24  0.250  0.250  0.310- 161 1.95 171 1.95 174 1.98
  25  0.348  0.375  0.382- 174 1.95 184 1.95 213 1.98
  26  0.152  0.375  0.382- 174 1.95 184 1.95 173 1.98
  27  0.000  0.250  0.336- 163 1.95 173 1.95 172 1.98
  28  0.000  0.250  0.428- 163 1.95 173 1.95 176 1.98
  29  0.098  0.375  0.500- 176 1.95 186 1.95 175 1.98
  30  0.402  0.375  0.500- 216 1.95 226 1.95 175 1.98
  31  0.250  0.250  0.454- 165 1.95 175 1.95 174 1.98
  32  0.250  0.250  0.546- 165 1.95 175 1.95 178 2.10
  33  0.350  0.375  0.618- 177 1.95 178 1.97 188 1.97
  34  0.150  0.375  0.618- 217 1.95 178 1.97 188 1.97
  35  0.000  0.250  0.572- 207 1.90 217 1.90 176 2.00
  36  0.000  0.250  0.665- 180 1.81 207 2.01 217 2.01
  37  0.094  0.375  0.742- 190 1.94 180 1.94 179 2.04
  38  0.406  0.375  0.742- 230 1.94 220 1.94 179 2.04
  39  0.250  0.250  0.690- 178 1.86 169 2.09 179 2.09
  40  0.250  0.250  0.782- 179 1.83 169 1.83
  41  0.098  0.625  0.264- 182 1.95 192 1.95 181 1.98
  42  0.402  0.625  0.264- 222 1.95 232 1.95 181 1.98
  43  0.250  0.500  0.218- 171 1.95 181 1.95
  44  0.250  0.500  0.310- 171 1.95 181 1.95 184 1.98
  45  0.348  0.625  0.382- 184 1.95 194 1.95 223 1.98
  46  0.152  0.625  0.382- 184 1.95 194 1.95 183 1.98
  47  0.000  0.500  0.336- 173 1.95 183 1.95 182 1.98
  48  0.000  0.500  0.428- 173 1.95 183 1.95 186 1.98
  49  0.098  0.625  0.500- 186 1.95 196 1.95 185 1.98
  50  0.402  0.625  0.500- 226 1.95 236 1.95 185 1.98
  51  0.250  0.500  0.454- 175 1.95 185 1.95 184 1.98
  52  0.250  0.500  0.546- 175 1.95 185 1.95 188 2.10
  53  0.350  0.625  0.618- 187 1.95 188 1.97 198 1.97
  54  0.150  0.625  0.618- 227 1.95 188 1.97 198 1.97
  55  0.000  0.500  0.572- 227 1.90 217 1.90 186 2.00
  56  0.000  0.500  0.665- 190 1.81 227 2.01 217 2.01
  57  0.094  0.625  0.742- 190 1.94 200 1.94 189 2.04
  58  0.406  0.625  0.742- 230 1.94 240 1.94 189 2.04
  59  0.250  1.000  0.690- 168 1.86 169 2.09 199 2.09
  60  0.250  0.500  0.782- 179 1.83 189 1.83
[...]
 226  0.500  0.500  0.500-  30 1.95  50 1.95 109 1.95 129 1.95 128 1.98 135 2.00
 227  1.000  0.625  0.615-  55 1.90  75 1.90 133 1.95  54 1.95  76 2.01  56 2.01
 228  0.750  0.500  0.622-  99 1.86 134 1.97 114 1.97 133 1.97 113 1.97 132 2.10
 229  0.750  0.625  0.744- 160 1.83 140 1.83 138 2.04 137 2.04 159 2.09  99 2.09
 230  0.500  0.500  0.731- 136 1.81 117 1.94 137 1.94  38 1.94  58 1.94
 231  0.750  0.875  0.264-  83 1.95  84 1.95 143 1.95 144 1.95 141 1.98 142 1.98
 232  0.500  0.750  0.264-  42 1.95  62 1.95 121 1.95 141 1.95 147 1.98
 233  0.500  0.875  0.382-  87 1.95 147 1.95  88 1.95 148 1.95  65 1.98 146 1.98
 234  0.750  0.750  0.382- 125 1.95 126 1.95 145 1.95 146 1.95 144 1.98 151 1.98
 235  0.750  0.875  0.500-  91 1.95  92 1.95 151 1.95 152 1.95 149 1.98 150 1.98
 236  0.500  0.750  0.500-  50 1.95  70 1.95 129 1.95 149 1.95 148 1.98 155 2.00
 237  1.000  0.875  0.615-  15 1.90  75 1.90 153 1.95  74 1.95  16 2.01  76 2.01
 238  0.750  0.750  0.622- 159 1.86 154 1.97 134 1.97 153 1.97 133 1.97 152 2.10
 239  0.750  0.875  0.744- 160 1.83 100 1.83 158 2.04 157 2.04 159 2.09 139 2.09
 240  0.500  0.750  0.731- 156 1.81 157 1.94  78 1.94 137 1.94  58 1.94

IMPORTANT INFORMATION: All symmetrisations will be switched off!
NOSYMM: (Re-)initialisation of all symmetry stuff for point group C_1.

                                     Primitive cell

  volume of cell :    4249.7019

  direct lattice vectors                    reciprocal lattice vectors
    13.016074892  0.000000000  0.000000000     0.076828077  0.000000000  0.000000000
     0.000000000 11.844370774  0.000000000     0.000000000  0.084428292  0.000000000
     0.000000000  0.000000000 27.565535629     0.000000000  0.000000000  0.036277184

  length of vectors
    13.016074892 11.844370774 27.565535629     0.076828077  0.084428292  0.036277184

  position of ions in fractional coordinates (direct lattice)
     0.097732310  0.125000000  0.263810984
     0.402267690  0.125000000  0.263810984
     0.250000000  0.000000000  0.217663102
     0.250000000  0.000000000  0.309958865
     0.347732310  0.125000000  0.381857619
     0.152267690  0.125000000  0.381857619
     0.000000000  0.000000000  0.335709737
     0.000000000  0.000000000  0.428005500
     0.097732310  0.125000000  0.499904254
     0.402267690  0.125000000  0.499904254
     0.250000000  0.000000000  0.453756372
     0.250000000  0.000000000  0.546052135
     0.349960529  0.125000012  0.618492673
     0.150041709  0.125000020  0.618492870
     0.000000648  0.999999994  0.572350334
     0.000000726  0.000000031  0.664802302
     0.093635235  0.124999951  0.742015042
     0.406365714  0.124999959  0.742015123
     0.250000576  0.499999990  0.689888040
     0.250000236  0.000000085  0.782336898
     0.097732310  0.375000000  0.263810984
     0.402267690  0.375000000  0.263810984
     0.250000000  0.250000000  0.217663102
     0.250000000  0.250000000  0.309958865
     0.347732310  0.375000000  0.381857619
     0.152267690  0.375000000  0.381857619
     0.000000000  0.250000000  0.335709737
     0.000000000  0.250000000  0.428005500
     0.097732310  0.375000000  0.499904254
     0.402267690  0.375000000  0.499904254
     0.250000000  0.250000000  0.453756372
     0.250000000  0.250000000  0.546052135
     0.349960523  0.374999963  0.618492679
     0.150041713  0.374999976  0.618492877
     0.000000659  0.250000019  0.572350319
     0.000000741  0.249999963  0.664802267
     0.093635240  0.375000046  0.742015000
     0.406365665  0.375000065  0.742015075
     0.250000582  0.249999954  0.689887990
     0.250000207  0.249999917  0.782336799
     0.097732310  0.625000000  0.263810984
     0.402267690  0.625000000  0.263810984
     0.250000000  0.500000000  0.217663102
     0.250000000  0.500000000  0.309958865
     0.347732310  0.625000000  0.381857619
     0.152267690  0.625000000  0.381857619
     0.000000000  0.500000000  0.335709737
     0.000000000  0.500000000  0.428005500
     0.097732310  0.625000000  0.499904254
     0.402267690  0.625000000  0.499904254
     0.250000000  0.500000000  0.453756372
     0.250000000  0.500000000  0.546052135
     0.349960529  0.625000012  0.618492673
     0.150041709  0.625000020  0.618492870
     0.000000648  0.499999994  0.572350334
     0.000000726  0.500000031  0.664802302
     0.093635235  0.624999951  0.742015042
     0.406365714  0.624999959  0.742015123
     0.250000576  0.999999990  0.689888040
     0.250000236  0.500000085  0.782336898
[...]
     0.500000000  0.500000000  0.499904254
     0.999995050  0.624999964  0.615465046
     0.749996225  0.500000025  0.622249941
     0.750000648  0.625000484  0.743559282
     0.500000508  0.499999990  0.730563493
     0.750000000  0.875000000  0.263810984
     0.500000000  0.750000000  0.263810984
     0.500000000  0.875000000  0.381857619
     0.750000000  0.750000000  0.381857619
     0.750000000  0.875000000  0.499904254
     0.500000000  0.750000000  0.499904254
     0.999995035  0.875000046  0.615465062
     0.749996236  0.750000041  0.622250010
     0.750000660  0.874999548  0.743559451
     0.500000464  0.750000042  0.730563481

  ion indices of the primitive-cell ions
   primitive index   ion index
                 1           1
                 2           2
                 3           3
                 4           4
                 5           5
                 6           6
                 7           7
                 8           8
                 9           9
                10          10
                11          11
[...]
   0.488E-05 0.778E-05 0.160E+04   0.607E-05 -.106E-07 -.161E+04   -.213E-04 -.210E-04 0.125E+01
   -.870E-04 0.702E-06 0.607E+03   0.737E-04 -.155E-06 -.602E+03   0.187E-04 0.194E-05 -.431E+01
   -.668E+02 -.240E-02 -.540E+01   0.719E+02 0.684E-05 0.512E+01   -.497E+01 0.932E-02 0.315E+00
   0.668E+02 -.240E-02 -.539E+01   -.719E+02 0.102E-04 0.512E+01   0.497E+01 0.932E-02 0.315E+00
   0.959E-04 0.442E-06 0.486E+03   -.122E-03 -.483E-06 -.490E+03   0.211E-04 -.126E-04 0.398E+01
   -.148E-02 0.279E-04 -.529E+03   0.163E-02 -.204E-04 0.537E+03   -.104E-03 -.118E-05 -.673E+01
   -.347E+02 -.176E-02 -.110E+04   0.378E+02 -.606E-04 0.110E+04   -.273E+01 -.166E-01 0.795E+00
   0.347E+02 -.180E-02 -.110E+04   -.379E+02 -.310E-04 0.110E+04   0.274E+01 -.167E-01 0.795E+00
   -.137E-01 0.527E-04 -.599E+03   0.150E-01 -.575E-04 0.593E+03   -.103E-02 -.254E-06 0.591E+01
   -.958E-02 -.178E-04 -.155E+04   0.105E-01 0.201E-04 0.155E+04   -.755E-03 -.117E-04 0.247E+01
   -.332E+02 -.464E-03 -.227E+04   0.398E+02 -.514E-03 0.227E+04   -.579E+01 -.214E-01 -.382E+01
   0.332E+02 -.263E-03 -.227E+04   -.398E+02 -.732E-03 0.227E+04   0.579E+01 -.214E-01 -.382E+01
   -.481E-02 0.691E-03 -.175E+04   0.525E-02 -.732E-03 0.175E+04   -.334E-03 0.341E-04 -.220E+01
   0.109E-02 -.502E-03 -.264E+04   -.121E-02 0.595E-03 0.266E+04   0.149E-03 -.575E-04 -.197E+02
   -.179E+02 0.134E-02 0.221E+04   0.247E+02 -.968E-08 -.221E+04   -.772E+01 0.245E-01 -.164E+01
   0.179E+02 0.138E-02 0.221E+04   -.247E+02 -.992E-08 -.221E+04   0.772E+01 0.245E-01 -.164E+01
   0.155E-04 -.330E-04 0.264E+04   -.276E-06 0.939E-10 -.266E+04   0.529E-05 -.411E-04 0.197E+02
   0.841E-05 -.230E-04 0.170E+04   -.304E-05 0.562E-08 -.170E+04   -.388E-04 -.834E-05 -.117E+01
   -.640E+02 0.217E-02 0.110E+04   0.683E+02 -.388E-06 -.110E+04   -.340E+01 -.510E-02 0.196E+00
   0.640E+02 0.220E-02 0.110E+04   -.683E+02 -.363E-06 -.110E+04   0.340E+01 -.510E-02 0.196E+00
   -.613E-05 -.246E-04 0.160E+04   0.607E-05 0.104E-07 -.161E+04   0.901E-06 -.137E-05 0.125E+01
   -.829E-04 0.568E-05 0.607E+03   0.735E-04 0.107E-06 -.602E+03   0.674E-05 -.459E-05 -.431E+01
   -.668E+02 0.239E-02 -.540E+01   0.719E+02 -.475E-05 0.512E+01   -.497E+01 -.932E-02 0.315E+00
   0.668E+02 0.240E-02 -.539E+01   -.719E+02 -.780E-05 0.512E+01   0.497E+01 -.932E-02 0.315E+00
   0.150E-03 -.120E-04 0.486E+03   -.122E-03 0.347E-06 -.490E+03   -.517E-05 -.215E-05 0.399E+01
   -.147E-02 0.128E-04 -.529E+03   0.162E-02 -.171E-04 0.537E+03   -.116E-03 0.108E-04 -.674E+01
   -.347E+02 0.155E-02 -.110E+04   0.378E+02 0.297E-03 0.110E+04   -.273E+01 0.166E-01 0.795E+00
   0.347E+02 0.162E-02 -.110E+04   -.379E+02 0.214E-03 0.110E+04   0.274E+01 0.166E-01 0.795E+00
   -.137E-01 -.475E-04 -.599E+03   0.150E-01 0.434E-04 0.593E+03   -.105E-02 0.159E-05 0.589E+01
   -.968E-02 0.874E-05 -.155E+04   0.106E-01 -.217E-04 0.155E+04   -.761E-03 0.157E-04 0.246E+01
   -.332E+02 0.394E-03 -.227E+04   0.398E+02 0.594E-03 0.227E+04   -.579E+01 0.215E-01 -.382E+01
   0.332E+02 0.272E-03 -.227E+04   -.398E+02 0.741E-03 0.227E+04   0.579E+01 0.214E-01 -.382E+01
   -.480E-02 -.751E-03 -.175E+04   0.522E-02 0.806E-03 0.175E+04   -.329E-03 -.471E-04 -.218E+01
   0.118E-02 0.391E-03 -.264E+04   -.131E-02 -.449E-03 0.266E+04   0.146E-03 0.480E-04 -.197E+02
   -.179E+02 -.135E-02 0.221E+04   0.247E+02 0.968E-08 -.221E+04   -.772E+01 -.246E-01 -.164E+01
   0.179E+02 -.135E-02 0.221E+04   -.247E+02 0.992E-08 -.221E+04   0.772E+01 -.246E-01 -.164E+01
   0.497E-04 0.150E-04 0.264E+04   -.277E-06 -.111E-09 -.266E+04   -.160E-04 -.873E-07 0.197E+02
   0.745E-04 0.105E-04 0.170E+04   -.304E-05 -.561E-08 -.170E+04   -.208E-04 -.348E-04 -.119E+01
   -.640E+02 -.218E-02 0.110E+04   0.683E+02 0.390E-06 -.110E+04   -.340E+01 0.508E-02 0.196E+00
   0.640E+02 -.220E-02 0.110E+04   -.683E+02 0.365E-06 -.110E+04   0.340E+01 0.509E-02 0.196E+00
   0.797E-05 -.112E-04 0.160E+04   0.607E-05 -.106E-07 -.161E+04   -.140E-04 0.236E-04 0.125E+01
   -.716E-04 0.648E-06 0.607E+03   0.737E-04 -.155E-06 -.602E+03   0.214E-05 0.330E-05 -.431E+01
   -.668E+02 -.240E-02 -.540E+01   0.719E+02 0.684E-05 0.512E+01   -.497E+01 0.931E-02 0.315E+00
   0.668E+02 -.241E-02 -.539E+01   -.719E+02 0.102E-04 0.512E+01   0.497E+01 0.931E-02 0.315E+00
   0.103E-03 0.134E-04 0.486E+03   -.122E-03 -.483E-06 -.490E+03   0.345E-04 -.173E-04 0.398E+01
   -.148E-02 0.313E-04 -.529E+03   0.163E-02 -.204E-04 0.537E+03   -.109E-03 -.113E-04 -.673E+01
   -.347E+02 -.176E-02 -.110E+04   0.378E+02 -.606E-04 0.110E+04   -.273E+01 -.166E-01 0.795E+00
   0.347E+02 -.179E-02 -.110E+04   -.379E+02 -.310E-04 0.110E+04   0.274E+01 -.166E-01 0.795E+00
   -.137E-01 0.777E-04 -.599E+03   0.150E-01 -.575E-04 0.593E+03   -.105E-02 -.324E-05 0.591E+01
   -.960E-02 -.412E-05 -.155E+04   0.105E-01 0.201E-04 0.155E+04   -.736E-03 -.137E-04 0.247E+01
   -.332E+02 -.460E-03 -.227E+04   0.398E+02 -.514E-03 0.227E+04   -.579E+01 -.214E-01 -.382E+01
   0.332E+02 -.284E-03 -.227E+04   -.398E+02 -.732E-03 0.227E+04   0.579E+01 -.214E-01 -.382E+01
   -.482E-02 0.675E-03 -.175E+04   0.525E-02 -.732E-03 0.175E+04   -.319E-03 0.515E-04 -.220E+01
   0.111E-02 -.507E-03 -.264E+04   -.121E-02 0.595E-03 0.266E+04   0.135E-03 -.725E-04 -.197E+02
[...]
   -.257E-01 0.146E-02 -.217E+04   0.247E-01 0.235E-03 0.217E+04   -.674E-03 0.537E-02 -.114E+01
   -.102E-01 0.231E-03 -.224E+04   0.946E-02 -.214E-03 0.224E+04   -.295E-03 0.104E-04 0.202E+01
   -.327E-03 0.485E-02 -.433E+04   0.287E-03 -.674E-02 0.433E+04   -.830E-04 0.165E-01 0.291E+01
   -.466E-03 -.135E-03 -.437E+04   0.576E-03 0.131E-03 0.437E+04   -.771E-04 0.237E-04 -.225E+01
   0.342E-04 0.197E-04 0.434E+04   -.179E-05 -.226E-07 -.435E+04   -.886E-05 -.834E-02 -.532E+00
   -.293E-04 0.271E-04 0.456E+04   0.179E-05 0.254E-08 -.455E+04   -.917E-05 0.112E-04 0.102E+01
   -.500E-04 0.185E-02 0.221E+04   0.420E-04 -.430E-06 -.221E+04   0.865E-05 -.167E-01 0.103E+00
   0.317E-04 -.248E-04 0.220E+04   -.405E-04 0.946E-07 -.220E+04   0.423E-05 0.151E-05 -.188E+00
   0.629E-03 0.223E-02 -.255E+02   -.628E-03 -.437E-04 0.265E+02   -.126E-04 0.186E-02 0.103E+00
   -.958E-03 0.142E-04 -.752E+01   0.104E-02 -.549E-05 0.616E+01   -.634E-05 -.455E-05 -.102E+00
   -.257E-01 -.147E-02 -.217E+04   0.248E-01 -.219E-03 0.217E+04   -.663E-03 -.538E-02 -.114E+01
   -.101E-01 0.103E-03 -.224E+04   0.939E-02 -.102E-03 0.224E+04   -.322E-03 0.440E-05 0.207E+01
   -.148E-03 -.463E-02 -.433E+04   0.114E-03 0.646E-02 0.433E+04   -.703E-04 -.165E-01 0.291E+01
   -.612E-03 0.225E-03 -.437E+04   0.665E-03 -.223E-03 0.437E+04   -.377E-04 -.267E-04 -.217E+01
   -.407E-01 0.577E-03 0.113E+03   0.182E-11 0.119E-11 0.146E-10   0.201E-01 -.426E-03 -.571E+02

 POSITION                                       TOTAL-FORCE (eV/Angst)
      1.27209      1.48055      7.27209        -2.301812     -0.023971     -0.818731
      5.23595      1.48055      7.27209         2.301750     -0.024024     -0.818756
      3.25402      0.00000      6.00000        -0.000071     -0.000138      2.631262
      3.25402      0.00000      8.54418        -0.000032     -0.000094      1.754999
      4.52611      1.48055     10.52611         0.312763      0.003030      0.079416
      1.98193      1.48055     10.52611        -0.312830      0.003020      0.079394
      0.00000      0.00000      9.25402        -0.000055     -0.000016     -1.337014
      0.00000      0.00000     11.79820        -0.000031      0.000005     -0.283880
      1.27209      1.48055     13.78013        -0.651084      0.006769      0.090069
      5.23595      1.48055     13.78013         0.650982      0.006765      0.090072
      3.25402      0.00000     12.50804        -0.000042     -0.000014      0.018422
      3.25402      0.00000     15.05222        -0.000013      0.000008     -0.279584
      4.55511      1.48055     17.04908        -0.047807     -0.017044      0.010272
      1.95295      1.48055     17.04909         0.048069     -0.017070      0.010290
      0.00001     11.84437     15.77714        -0.000003     -0.000004      0.206686
      0.00001      0.00000     18.32563         0.000003     -0.000011      0.092996
      1.21876      1.48055     20.45404        -0.206511     -0.020509     -0.055206
      5.28929      1.48055     20.45404         0.206482     -0.020496     -0.055159
      3.25403      5.92219     19.01713        -0.000003     -0.000001     -0.191743
      3.25402      0.00000     21.56554         0.000006      0.000026     -0.432454
      1.27209      4.44164      7.27209        -2.301769      0.023927     -0.818737
      5.23595      4.44164      7.27209         2.301747      0.023983     -0.818757
      3.25402      2.96109      6.00000        -0.000019     -0.000085      2.663778
      3.25402      2.96109      8.54418        -0.000082     -0.000033      1.776817
      4.52611      4.44164     10.52611         0.312766     -0.003057      0.079416
      1.98193      4.44164     10.52611        -0.312837     -0.003017      0.079409
      0.00000      2.96109      9.25402        -0.000040     -0.000026     -1.343668
      0.00000      2.96109     11.79820        -0.000041      0.000001     -0.282670
      1.27209      4.44164     13.78013        -0.651071     -0.006766      0.090061
      5.23595      4.44164     13.78013         0.650984     -0.006758      0.090077
      3.25402      2.96109     12.50804        -0.000017     -0.000013      0.031041
      3.25402      2.96109     15.05222        -0.000023      0.000010     -0.290985
      4.55511      4.44164     17.04908        -0.047820      0.017054      0.010263
      1.95295      4.44164     17.04909         0.048070      0.017072      0.010285
      0.00001      2.96109     15.77714        -0.000001     -0.000001      0.189950
      0.00001      2.96109     18.32563         0.000013      0.000007      0.080637
      1.21876      4.44164     20.45404        -0.206515      0.020533     -0.055181
      5.28929      4.44164     20.45404         0.206487      0.020510     -0.055161
      3.25403      2.96109     19.01713        -0.000012      0.000003     -0.177877
      3.25402      2.96109     21.56553        -0.000002     -0.000000     -0.465639
      1.27209      7.40273      7.27209        -2.301728     -0.024006     -0.818730
      5.23595      7.40273      7.27209         2.301717     -0.024001     -0.818751
      3.25402      5.92219      6.00000        -0.000009      0.000017      2.631183
      3.25402      5.92219      8.54418         0.000008     -0.000031      1.754916
      4.52611      7.40273     10.52611         0.312743      0.003023      0.079432
      1.98193      7.40273     10.52611        -0.312851      0.003008      0.079403
      0.00000      5.92219      9.25402        -0.000043      0.000019     -1.337002
      0.00000      5.92219     11.79820        -0.000035      0.000006     -0.283886
      1.27209      7.40273     13.78013        -0.651063      0.006749      0.090056
      5.23595      7.40273     13.78013         0.650984      0.006744      0.090070
      3.25402      5.92219     12.50804        -0.000017     -0.000007      0.018368
      3.25402      5.92219     15.05222        -0.000011     -0.000002     -0.279589
      4.55511      7.40273     17.04908        -0.047803     -0.017048      0.010270
      1.95295      7.40273     17.04909         0.048087     -0.017061      0.010292
      0.00001      5.92219     15.77714         0.000005      0.000019      0.206675
      0.00001      5.92219     18.32563         0.000009      0.000001      0.092996
      1.21876      7.40273     20.45404        -0.206533     -0.020513     -0.055191
      5.28929      7.40273     20.45404         0.206493     -0.020520     -0.055158
      3.25403     11.84437     19.01713         0.000005      0.000004     -0.191739
      3.25402      5.92219     21.56554         0.000003      0.000003     -0.432442
[...]
      6.50804      5.92219     13.78013        -0.000005     -0.000002     -0.803311
     13.01601      7.40273     16.96562         0.000356      0.007218     -0.099640
      9.76201      5.92219     17.15265         0.000262      0.000011      0.216788
      9.76206      7.40274     20.49661        -0.000147      0.006709      0.290022
      6.50804      5.92219     20.13837        -0.000027      0.000017     -0.216784
      9.76206     10.36382      7.27209         0.000003     -0.005577     -4.054881
      6.50804      8.88328      7.27209        -0.000077      0.000028      3.324030
      6.50804     10.36382     10.52611        -0.000050     -0.007361      0.586592
      9.76206      8.88328     10.52611        -0.000049     -0.000029     -0.848568
      9.76206     10.36382     13.78013        -0.000040      0.005691      0.733273
      6.50804      8.88328     13.78013         0.000015      0.000005     -0.762332
     13.01601     10.36382     16.96562         0.000345     -0.007212     -0.099643
      9.76201      8.88328     17.15265         0.000235     -0.000005      0.256197
      9.76206     10.36382     20.49661        -0.000151     -0.006773      0.289974
      6.50804      8.88328     20.13837        -0.000059     -0.000012     -0.163032
    total drift:                                0.009666     -0.000292      0.736932

  FREE ENERGIE OF THE ION-ELECTRON SYSTEM (eV)
  free  energy   TOTEN  =     -2798.74592194 eV

  energy  without entropy=    -2798.74592194  energy(sigma->0) =    -2798.74592194

 writing wavefunctions

 total charge

# of ion       s       p       d       tot
    1        1.579   3.525   0.000   5.104
    2        1.579   3.525   0.000   5.104
    3        1.586   3.411   0.000   4.997
    4        1.576   3.551   0.000   5.127
    5        1.576   3.546   0.000   5.121
    6        1.576   3.546   0.000   5.121
    7        1.574   3.533   0.000   5.107
    8        1.576   3.542   0.000   5.118
    9        1.577   3.543   0.000   5.120
   10        1.577   3.543   0.000   5.120
   11        1.576   3.547   0.000   5.124
   12        1.575   3.522   0.000   5.096
   13        1.575   3.541   0.000   5.116
   14        1.575   3.541   0.000   5.116
   15        1.580   3.564   0.000   5.144
   16        1.578   3.560   0.000   5.138
   17        1.574   3.534   0.000   5.108
   18        1.574   3.534   0.000   5.108
   19        1.574   3.517   0.000   5.091
   20        1.595   3.483   0.000   5.077
   21        1.579   3.525   0.000   5.104
   22        1.579   3.525   0.000   5.104
   23        1.586   3.411   0.000   4.997
   24        1.576   3.551   0.000   5.127
   25        1.576   3.546   0.000   5.121
   26        1.576   3.546   0.000   5.121
   27        1.574   3.533   0.000   5.107
   28        1.576   3.542   0.000   5.118
   29        1.577   3.543   0.000   5.120
   30        1.577   3.543   0.000   5.120
   31        1.576   3.547   0.000   5.124
   32        1.575   3.522   0.000   5.096
   33        1.575   3.541   0.000   5.116
   34        1.575   3.541   0.000   5.116
   35        1.580   3.564   0.000   5.144
   36        1.578   3.560   0.000   5.138
   37        1.574   3.534   0.000   5.108
   38        1.574   3.534   0.000   5.108
   39        1.574   3.517   0.000   5.091
   40        1.595   3.483   0.000   5.077
   41        1.579   3.525   0.000   5.104
   42        1.579   3.525   0.000   5.104
   43        1.586   3.411   0.000   4.997
   44        1.576   3.551   0.000   5.127
   45        1.576   3.546   0.000   5.121
   46        1.576   3.546   0.000   5.121
   47        1.574   3.533   0.000   5.107
   48        1.576   3.542   0.000   5.118
   49        1.577   3.543   0.000   5.120
   50        1.577   3.543   0.000   5.120
   51        1.576   3.547   0.000   5.124
   52        1.575   3.522   0.000   5.096
   53        1.575   3.541   0.000   5.116
   54        1.575   3.541   0.000   5.116
   55        1.580   3.564   0.000   5.144
   56        1.578   3.560   0.000   5.138
   57        1.574   3.534   0.000   5.108
   58        1.574   3.534   0.000   5.108
   59        1.574   3.517   0.000   5.091
   60        1.595   3.483   0.000   5.077
[...]
  226        2.223   6.314   1.562  10.099
  227        2.230   6.323   1.587  10.140
  228        2.225   6.307   1.572  10.103
  229        2.224   6.303   1.646  10.173
  230        2.236   6.301   1.668  10.205
  231        2.222   6.314   1.613  10.150
  232        2.207   6.264   1.578  10.048
  233        2.226   6.316   1.560  10.101
  234        2.226   6.318   1.565  10.109
  235        2.225   6.317   1.568  10.111
  236        2.223   6.314   1.562  10.099
  237        2.230   6.323   1.587  10.140
  238        2.225   6.307   1.572  10.103
  239        2.224   6.303   1.646  10.173
  240        2.236   6.301   1.668  10.205
tot        430.3571069.484 127.3341627.175