 vasp.6.2.1 16May21 (build Oct 07 2021 14:09:27) complex

 executed on             LinuxIFC date 2022.01.20  00:17:15

 INCAR:
   SYSTEM = MgO-rocksalt
   ISMEAR = 0
   SIGMA = 0.05
   EDIFF = 1E-6
   ALGO = Fast
   ISTART = 0
   IBRION = 2
   NSW = 200
   EDIFFG = -0.01
   ISIF = 3
   ENCUT = 800
   PREC = Accurate
   LASPH = .TRUE.
   LREAL = .FALSE.
   ISPIN = 1
   NELM = 60
   NELMIN = 4
   NCORE = 19
   LWAVE = .FALSE.
   LCHARG = .FALSE.
   LORBIT = 11

 POTCAR:    PAW Mg_sv 15Mar2012
 POTCAR:    PAW O 22Mar2012
|           W    W    AA    RRRRR   N    N  II  N    N   GGGG   !!!           |
|           W    W   A  A   R    R  NN   N  II  NN   N  G    G  !!!           |
|           W    W  A    A  R    R  N N  N  II  N N  N  G       !!!           |
|           W WW W  AAAAAA  RRRRR   N  N N  II  N  N N  G  GGG   !            |
|           WW  WW  A    A  R   R   N   NN  II  N   NN  G    G                |
|           W    W  A    A  R    R  N    N  II  N    N   GGGG   !!!           |
|     For optimal performance we recommend to set                             |
|       NCORE = 2 up to number-of-cores-per-socket                            |
|     This setting can greatly improve the performance of VASP for DFT.       |
|     The default, NCORE=1 might be grossly inefficient on modern             |
|     multi-core architectures or massively parallel machines. Do your        |
|     Unfortunately you need to use the default for GW and RPA                |
|     calculations (for HF NCORE is supported but not extensively tested      |
|     yet).                                                                   |

   TITEL  = PAW Mg_sv 15Mar2012
   POMASS =   24.305; ZVAL   =   10.000    mass and valenz
   ENMAX  =  473.540; ENMIN  =  355.155 eV

   TITEL  = PAW O 22Mar2012
   POMASS =   16.000; ZVAL   =    6.000    mass and valenz
   ENMAX  =  400.000; ENMIN  =  300.000 eV

  PAW Mg_sv 15Mar2012                   :
  PAW O 22Mar2012                       :

 POSCAR: Mg4 O4
  positions in direct lattice
  velocities in cartesian coordinates
 exchange correlation table for  LEXCH =        2
   RHO(1)=    0.500       N(1)  =     2000
   RHO(2)=  100.500       N(2)  =     4000

 ion  position               nearest neighbor table
   1  0.000  0.000  0.000-   5 2.10   7 2.10   8 2.10   7 2.10   8 2.10   5 2.10
   2  0.000  0.500  0.500-   6 2.10   7 2.10   8 2.10   8 2.10   7 2.10   6 2.10
   3  0.500  0.000  0.500-   5 2.10   6 2.10   7 2.10   5 2.10   6 2.10   7 2.10
   4  0.500  0.500  0.000-   5 2.10   6 2.10   8 2.10   6 2.10   5 2.10   8 2.10
   5  0.500  0.000  0.000-   1 2.10   3 2.10   4 2.10   3 2.10   4 2.10   1 2.10
   6  0.500  0.500  0.500-   2 2.10   3 2.10   4 2.10   4 2.10   3 2.10   2 2.10
   7  0.000  0.000  0.500-   1 2.10   2 2.10   3 2.10   1 2.10   2 2.10   3 2.10
   8  0.000  0.500  0.000-   1 2.10   2 2.10   4 2.10   2 2.10   1 2.10   4 2.10

  LATTYP: Found a simple cubic cell.
 ALAT       =     4.2064569314

  Lattice vectors:

 A1 = (   4.2064569314,   0.0000000000,   0.0000000000)
 A2 = (   0.0000000000,   4.2064569314,   0.0000000000)
 A3 = (   0.0000000000,   0.0000000000,   4.2064569314)

Analysis of symmetry for initial positions (statically):
 Subroutine PRICEL returns following result:

  LATTYP: Found a face centered cubic cell.
 ALAT       =     4.2064569314

[...]

   4 primitive cells build up your supercell.

 Routine SETGRP: Setting up the symmetry group for a
 simple cubic supercell.

 Subroutine GETGRP returns: Found 48 space group operations
 (whereof 48 operations were pure point group operations)
 out of a pool of 48 trial point group operations.

The static configuration has the point symmetry O_h .

Analysis of symmetry for dynamics (positions and initial velocities):
 Subroutine PRICEL returns following result:

  LATTYP: Found a face centered cubic cell.
 ALAT       =     4.2064569314

  Lattice vectors:

 A1 = (   2.1032284657,  -2.1032284657,   0.0000000000)
 A2 = (   2.1032284657,   0.0000000000,   2.1032284657)
 A3 = (   0.0000000000,  -2.1032284657,   2.1032284657)

   4 primitive cells build up your supercell.

 Routine SETGRP: Setting up the symmetry group for a
 simple cubic supercell.

 Subroutine GETGRP returns: Found 48 space group operations
 (whereof 48 operations were pure point group operations)
 out of a pool of 48 trial point group operations.

The dynamic configuration has the point symmetry O_h .

 Subroutine INISYM returns: Found 48 space group operations
 (whereof 48 operations are pure point group operations),
 and found     4 'primitive' translations

                                     Primitive cell

  volume of cell :      18.6076

  direct lattice vectors                    reciprocal lattice vectors
     2.103228466 -2.103228466  0.000000000     0.237729761 -0.237729761 -0.237729761
     2.103228466  0.000000000  2.103228466     0.237729761  0.237729761  0.237729761
     0.000000000 -2.103228466  2.103228466    -0.237729761 -0.237729761  0.237729761

  length of vectors
     2.974414221  2.974414221  2.974414221     0.411760024  0.411760024  0.411760024

  position of ions in fractional coordinates (direct lattice)
     0.000000000  0.000000000  0.000000000
     0.500000000  0.500000000  0.500000000

  ion indices of the primitive-cell ions
   primitive index   ion index
                 1           1
                 2           5

 KPOINTS: pymatgen v2020.8.13 with grid density =

Automatic generation of k-mesh.
 Grid dimensions read from file:
 generate k-points for:    9    9    9

 Generating k-lattice:

  Cartesian coordinates                     Fractional coordinates (reciprocal lattice)
     0.026414418  0.000000000  0.000000000     0.111111111  0.000000000  0.000000000
     0.000000000  0.026414418  0.000000000     0.000000000  0.111111111  0.000000000
     0.000000000  0.000000000  0.026414418     0.000000000  0.000000000  0.111111111

  Length of vectors
     0.026414418  0.026414418  0.026414418

  Shift w.r.t. Gamma in fractional coordinates (k-lattice)
     0.000000000  0.000000000  0.000000000

 Subroutine IBZKPT returns following result:

 Found     35 irreducible k-points:

 Following reciprocal coordinates:
            Coordinates               Weight
  0.000000  0.000000  0.000000      1.000000
  0.111111  0.000000  0.000000      6.000000
  0.222222  0.000000  0.000000      6.000000
  0.333333  0.000000  0.000000      6.000000
  0.444444  0.000000  0.000000      6.000000
  0.111111  0.111111  0.000000     12.000000
  0.222222  0.111111  0.000000     24.000000
  0.333333  0.111111  0.000000     24.000000
  0.444444  0.111111  0.000000     24.000000
  0.222222  0.222222  0.000000     12.000000
  0.333333  0.222222  0.000000     24.000000
  0.444444  0.222222  0.000000     24.000000
  0.333333  0.333333  0.000000     12.000000
  0.444444  0.333333  0.000000     24.000000
  0.444444  0.444444  0.000000     12.000000
  0.111111  0.111111  0.111111      8.000000
  0.222222  0.111111  0.111111     24.000000
  0.333333  0.111111  0.111111     24.000000
  0.444444  0.111111  0.111111     24.000000
  0.222222  0.222222  0.111111     24.000000
  0.333333  0.222222  0.111111     48.000000
  0.444444  0.222222  0.111111     48.000000
  0.333333  0.333333  0.111111     24.000000
  0.444444  0.333333  0.111111     48.000000
  0.444444  0.444444  0.111111     24.000000
  0.222222  0.222222  0.222222      8.000000
  0.333333  0.222222  0.222222     24.000000
  0.444444  0.222222  0.222222     24.000000
  0.333333  0.333333  0.222222     24.000000
  0.444444  0.333333  0.222222     48.000000
  0.444444  0.444444  0.222222     24.000000
  0.333333  0.333333  0.333333      8.000000
  0.444444  0.333333  0.333333     24.000000
  0.444444  0.444444  0.333333     24.000000
  0.444444  0.444444  0.444444      8.000000

 Following cartesian coordinates:
            Coordinates               Weight
  0.000000  0.000000  0.000000      1.000000
  0.026414  0.000000  0.000000      6.000000
  0.052829  0.000000  0.000000      6.000000
  0.079243  0.000000  0.000000      6.000000
  0.105658  0.000000  0.000000      6.000000
  0.026414  0.026414  0.000000     12.000000
  0.052829  0.026414  0.000000     24.000000
  0.079243  0.026414  0.000000     24.000000
  0.105658  0.026414  0.000000     24.000000
  0.052829  0.052829  0.000000     12.000000
  0.079243  0.052829  0.000000     24.000000
  0.105658  0.052829  0.000000     24.000000
  0.079243  0.079243  0.000000     12.000000
  0.105658  0.079243  0.000000     24.000000
  0.105658  0.105658  0.000000     12.000000
  0.026414  0.026414  0.026414      8.000000
  0.052829  0.026414  0.026414     24.000000
  0.079243  0.026414  0.026414     24.000000
  0.105658  0.026414  0.026414     24.000000
  0.052829  0.052829  0.026414     24.000000
  0.079243  0.052829  0.026414     48.000000
  0.105658  0.052829  0.026414     48.000000
  0.079243  0.079243  0.026414     24.000000
  0.105658  0.079243  0.026414     48.000000
  0.105658  0.105658  0.026414     24.000000
  0.052829  0.052829  0.052829      8.000000
  0.079243  0.052829  0.052829     24.000000
  0.105658  0.052829  0.052829     24.000000
  0.079243  0.079243  0.052829     24.000000
  0.105658  0.079243  0.052829     48.000000
  0.105658  0.105658  0.052829     24.000000
  0.079243  0.079243  0.079243      8.000000
  0.105658  0.079243  0.079243     24.000000
  0.105658  0.105658  0.079243     24.000000
  0.105658  0.105658  0.105658      8.000000

 SYSTEM =  MgO-rocksalt
 POSCAR =  Mg4 O4

 Startparameter for this run:
   NWRITE =      2    write-flag & timer
   PREC   = accura    normal or accurate (medium, high low for compatibility)
   ISTART =      0    job   : 0-new  1-cont  2-samecut
   ICHARG =      2    charge: 1-file 2-atom 10-const
   ISPIN  =      1    spin polarized calculation?
   LNONCOLLINEAR =      F non collinear calculations
   LSORBIT =      F    spin-orbit coupling
   INIWAV =      1    electr: 0-lowe 1-rand  2-diag
   LASPH  =      T    aspherical Exc in radial PAW
 Electronic Relaxation 1
   ENCUT  =  800.0 eV  58.80 Ry    7.67 a.u.   9.70  9.70  9.70*2*pi/ulx,y,z
   ENINI  =  800.0     initial cutoff
   ENAUG  =  980.2 eV  augmentation charge cutoff
   NELM   =     60;   NELMIN=  4; NELMDL= -5     # of ELM steps
   EDIFF  = 0.1E-05   stopping-criterion for ELM
   LREAL  =      F    real-space projection
   NLSPLINE    = F    spline interpolate recip. space projectors
   LCOMPAT=      F    compatible to vasp.4.4
   GGA_COMPAT  = T    GGA compatible to vasp.4.4-vasp.4.6
   LMAXPAW     = -100 max onsite density
   LMAXMIX     =    2 max onsite mixed and CHGCAR
   VOSKOWN=      0    Vosko Wilk Nusair interpolation
   ROPT   =    0.00000   0.00000
 Ionic relaxation
   EDIFFG = -.1E-01   stopping-criterion for IOM
   NSW    =    200    number of steps for IOM
   NBLOCK =      1;   KBLOCK =    200    inner block; outer block
   IBRION =      2    ionic relax: 0-MD 1-quasi-New 2-CG
   NFREE  =      1    steps in history (QN), initial steepest desc. (CG)
   ISIF   =      3    stress and relaxation
   IWAVPR =     11    prediction:  0-non 1-charg 2-wave 3-comb
[...]
 Maximum number of reciprocal cells 3x 3x 3

--------------------------------------- Iteration      1(   1)  ---------------------------------------

 eigenvalue-minimisations  :  2808
 total energy-change (2. order) : 0.9692245E+03  (-0.5199834E+04)
 number of electron      64.0000000 magnetization
 augmentation part       64.0000000 magnetization

 Free energy of the ion-electron system (eV)
  alpha Z        PSCENC =       327.28906105
  Ewald energy   TEWEN  =     -5164.39007194
  -Hartree energ DENC   =     -2330.76767103
  -exchange      EXHF   =         0.00000000
  -V(xc)+E(xc)   XCENC  =       384.42836560
  PAW double counting   =      6133.10020499    -6495.07764243
  entropy T*S    EENTRO =        -0.00164893
  eigenvalues    EBANDS =      -512.49550463
  atomic energy  EATOM  =      8627.13942849
  Solvation  Ediel_sol  =         0.00000000
  free energy    TOTEN  =       969.22452116 eV

  energy without entropy =      969.22617009  energy(sigma->0) =      969.22534562

[...]

 eigenvalue-minimisations  :  3168
 total energy-change (2. order) :-0.9484952E+03  (-0.9188686E+03)
 number of electron      64.0000000 magnetization
 augmentation part       64.0000000 magnetization

[...]

 Broyden mixing:
  rms(total) = 0.16999E+01    rms(broyden)= 0.16995E+01
  rms(prec ) = 0.36192E+01
  weight for this iteration     100.00

[...]

 eigenvalues of (default mixing * dielectric matrix)
  average eigenvalue GAMMA=   1.0036
  1.0036

[...]

 average (electrostatic) potential at core
  the test charge radii are     0.7298  0.7215
  (the norm of the test charge is              1.0000)
       1 -43.2754       2 -43.2754       3 -43.2754       4 -43.2754       5 -71.0383
       6 -71.0383       7 -71.0383       8 -71.0383

 E-fermi :   2.8446     XC(G=0): -11.9537     alpha+bet :-12.7959

 Fermi energy:         2.8445536459

 k-point     1 :       0.0000    0.0000    0.0000
  band No.  band energies     occupation
      1     -68.7135      2.00000
      2     -68.7009      2.00000
      3     -68.7009      2.00000
      4     -68.7009      2.00000
      5     -36.2544      2.00000
      6     -36.2544      2.00000
      7     -36.2544      2.00000
      8     -36.2068      2.00000
      9     -36.2068      2.00000
     10     -36.2068      2.00000
     11     -36.2068      2.00000
     12     -36.2068      2.00000
     13     -36.2068      2.00000
     14     -36.1758      2.00000
     15     -36.1758      2.00000
     16     -36.1758      2.00000
     17     -14.3959      2.00000
     18     -12.7754      2.00000
     19     -12.7754      2.00000
     20     -12.7754      2.00000
     21      -1.5274      2.00000
     22      -1.5274      2.00000
     23      -1.5274      2.00000
     24       1.2396      2.00000
     25       1.2396      2.00000
     26       1.2396      2.00000
     27       1.2396      2.00000
     28       1.2396      2.00000
     29       1.2396      2.00000
     30       2.6093      2.00000
     31       2.6093      2.00000
     32       2.6093      2.00000
     33       7.3328      0.00000
     34      11.5101      0.00000
     35      11.5101      0.00000
     36      11.5101      0.00000
     37      12.4083      0.00000
     38      12.4162      0.00000
     39      12.4258      0.00000
     40      15.5468      0.00000

[...]

 soft charge-density along one line, spin component           1
         0         1         2         3         4         5         6         7         8         9
 total charge-density along one line

------------------------ aborting loop because EDIFF is reached ----------------------------------------

 total charge

# of ion       s       p       d       tot
    1        2.075   6.012   0.043   8.130
    2        2.075   6.012   0.043   8.130
    3        2.075   6.012   0.043   8.130
    4        2.075   6.012   0.043   8.130
    5        1.526   3.543   0.000   5.069
    6        1.526   3.543   0.000   5.069
    7        1.526   3.543   0.000   5.069
    8        1.526   3.543   0.000   5.069
tot         14.405  38.218   0.172  52.796

  FORCE on cell =-STRESS in cart. coord.  units (eV):
  Direction    XX          YY          ZZ          XY          YZ          ZX
  Alpha Z   327.28906   327.28906   327.28906
  Ewald   -1721.46585 -1721.46585 -1721.46585     0.00000    -0.00000    -0.00000
  Hartree   768.30127   768.30127   768.30127    -0.00000    -0.00000    -0.00000
  E(xc)    -385.98334  -385.98334  -385.98334    -0.00000     0.00000    -0.00000
  Local     260.57830   260.57830   260.57830    -0.00000    -0.00000    -0.00000
  n-local  -747.80234  -740.97480  -733.83472     0.63370     0.54806     0.38802
  augment   115.27660   115.27660   115.27660     0.00000    -0.00000     0.00000
  Kinetic  1374.95457  1376.10091  1372.39665    -3.81163    -3.44748    -2.43248
  Fock        0.00000     0.00000     0.00000     0.00000     0.00000     0.00000
  Total      -2.39053    -2.39053    -2.39053    -0.00000    -0.00000    -0.00000
  in kB     -51.45831   -51.45831   -51.45831    -0.00000    -0.00000    -0.00000

 VOLUME and BASIS-vectors are now :
  energy-cutoff  :      800.00
  volume of cell :       74.43
      direct lattice vectors                 reciprocal lattice vectors
     4.206456931  0.000000000  0.000000000     0.237729761  0.000000000  0.000000000
     0.000000000  4.206456931  0.000000000     0.000000000  0.237729761  0.000000000
     0.000000000  0.000000000  4.206456931     0.000000000  0.000000000  0.237729761

[...]

 FORCES acting on ions
    electron-ion (+dipol)            ewald-force                    non-local-force                 convergence-correction
   0.230E-13 0.173E-13 0.758E-13   0.765E-14 -.897E-14 -.215E-13   0.191E-21 0.208E-21 0.266E-21   0.191E-12 -.338E-14 0.117E-12
   0.232E-13 0.797E-13 0.447E-13   0.737E-14 0.134E-13 -.432E-14   -.956E-22 -.592E-23 -.773E-21   0.189E-12 -.236E-13 -.241E-12
   0.122E-13 0.155E-13 0.150E-12   0.153E-13 -.583E-14 -.443E-14   -.177E-22 0.824E-21 -.331E-21   -.167E-12 0.452E-14 -.233E-12
   0.113E-13 0.504E-11 -.562E-11   0.150E-13 0.165E-13 -.928E-14   -.519E-21 0.417E-21 0.593E-22   -.184E-12 0.323E-13 0.128E-12
   0.374E-13 0.465E-13 -.113E-11   -.844E-14 -.906E-14 0.533E-14   0.475E-22 -.435E-22 0.132E-22   -.710E-13 0.406E-13 0.934E-13
   0.359E-13 0.218E-11 0.891E-12   -.830E-14 -.879E-15 0.124E-13   0.462E-22 0.587E-24 0.925E-23   -.692E-13 0.422E-13 -.146E-12
   0.813E-13 0.471E-13 -.459E-14   -.164E-13 -.770E-14 0.124E-13   -.113E-22 -.368E-22 -.801E-23   0.165E-12 0.398E-13 -.149E-12
   0.813E-13 0.902E-13 0.583E-13   -.163E-13 0.481E-15 0.621E-14   -.192E-22 0.621E-22 0.108E-22   0.169E-12 0.316E-13 0.102E-12
   0.306E-12 0.752E-11 -.554E-11   -.410E-14 -.201E-14 -.322E-14   -.378E-21 0.143E-20 -.754E-21   0.224E-12 0.164E-12 -.330E-12

 POSITION                                       TOTAL-FORCE (eV/Angst)
      0.00000      0.00000      0.00000        -0.000000      0.000000     -0.000000
      0.00000      2.10323      2.10323        -0.000000     -0.000000      0.000000
      2.10323      0.00000      2.10323         0.000000      0.000000     -0.000000
      2.10323      2.10323      0.00000         0.000000     -0.000000      0.000000
      2.10323      0.00000      0.00000        -0.000000     -0.000000      0.000000
      2.10323      2.10323      2.10323         0.000000      0.000000     -0.000000
      0.00000      0.00000      2.10323        -0.000000      0.000000      0.000000
      0.00000      2.10323      0.00000        -0.000000      0.000000     -0.000000
    total drift:                                0.000000      0.000000     -0.000000

  FREE ENERGIE OF THE ION-ELECTRON SYSTEM (eV)
  free  energy   TOTEN  =       -52.91053871 eV

  energy  without entropy=      -52.91053871  energy(sigma->0) =      -52.91053871

[...]

WARNING in EDDRMM: call to ZHEGV failed, returncode =   8  4      4

[...]

 d Force = 0.0000000E+00[ 0.000E+00, 0.000E+00]  d Energy = 0.3077022E-01-0.308E-01
 d Force = 0.0000000E+00[ 0.000E+00, 0.000E+00]  d Ewald  = 0.7553718E+02-0.755E+02

 Steepest descent step on ions:
 trial-energy change:   -0.030770  1 .order   -0.029574   -0.103383    0.044235
  (g-gl).g = 0.103E+00      g.g   = 0.103E+00  gl.gl    = 0.000E+00
 g(Force)  = 0.949E-59   g(Stress)= 0.103E+00 ortho     = 0.000E+00
 gamma     =   0.00000
 trial     =   1.00000
 opt step  =   0.71034  (harmonic =   0.70034) maximal distance =0.00000000
 next E    =   -52.947686   (d E  =  -0.03715)

[...]

 eigenvalue-minimisations  :  3243
 total energy-change (2. order) : 0.1232738E-01  (-0.6282951E-02)
 number of electron      63.9999989 magnetization
 augmentation part       17.3412692 magnetization

[...]

WARNING in EDDRMM: call to ZHEGV failed, returncode =   6  3      4

[...]

 Broyden mixing:
  rms(total) = 0.22170E-03    rms(broyden)= 0.22169E-03
  rms(prec ) = 0.31856E-03
  weight for this iteration     100.00

 eigenvalues of (default mixing * dielectric matrix)
  average eigenvalue GAMMA=   1.5807
  4.0848  2.7817  2.4739  2.1072  1.5602  1.0777  1.0777  0.9387  0.9387  0.7832
  0.5726  0.5726

[...]

--------------------------------------- Iteration      3(  14)  ---------------------------------------

 eigenvalue-minimisations  :  2601
 total energy-change (2. order) :-0.8436582E-06  (-0.7917672E-06)
 number of electron      63.9999989 magnetization
 augmentation part       17.3849798 magnetization

 Free energy of the ion-electron system (eV)
  alpha Z        PSCENC =       337.55297270
  Ewald energy   TEWEN  =     -5217.82112235
  -Hartree energ DENC   =     -2278.29641403
  -exchange      EXHF   =         0.00000000
  -V(xc)+E(xc)   XCENC  =       386.33604623
  PAW double counting   =      6346.27742368    -6760.57863772
  entropy T*S    EENTRO =        -0.00000000
  eigenvalues    EBANDS =     -1493.55748275
  atomic energy  EATOM  =      8627.13942849
  Solvation  Ediel_sol  =         0.00000000
  free energy    TOTEN  =       -52.94778576 eV

  energy without entropy =      -52.94778576  energy(sigma->0) =      -52.94778576

 average (electrostatic) potential at core
  the test charge radii are     0.7298  0.7215
  (the norm of the test charge is              1.0000)
       1 -42.9387       2 -42.9387       3 -42.9387       4 -42.9387       5 -70.8134
       6 -70.8134       7 -70.8134       8 -70.8134

 E-fermi :   3.0554     XC(G=0): -12.1146     alpha+bet :-13.1971

 Fermi energy:         3.0553713912

[...]

 k-point    35 :       0.4444    0.4444    0.4444
  band No.  band energies     occupation
      1     -68.3748      2.00000
      2     -68.3743      2.00000
      3     -68.3743      2.00000
      4     -68.3743      2.00000
      5     -35.9468      2.00000
      6     -35.9468      2.00000
      7     -35.9468      2.00000
      8     -35.9452      2.00000
      9     -35.8556      2.00000
     10     -35.8556      2.00000
     11     -35.8556      2.00000
     12     -35.8545      2.00000
     13     -35.8545      2.00000
     14     -35.8545      2.00000
     15     -35.8535      2.00000
     16     -35.8535      2.00000
     17     -12.9081      2.00000
     18     -12.8483      2.00000
     19     -12.8483      2.00000
     20     -12.8483      2.00000
     21      -1.9523      2.00000
     22      -1.9523      2.00000
     23      -1.9523      2.00000
     24      -1.8893      2.00000
     25       2.0129      2.00000
     26       2.0129      2.00000
     27       2.0129      2.00000
     28       2.1045      2.00000
     29       2.1045      2.00000
     30       2.1045      2.00000
     31       2.1477      2.00000
     32       2.1477      2.00000
     33      10.7967      0.00000
     34      10.9529      0.00000
     35      10.9529      0.00000
     36      10.9529      0.00000
     37      15.5748      0.00000
     38      15.6031      0.00000
     39      15.6032      0.00000
     40      15.6033      0.00000

 soft charge-density along one line, spin component           1
         0         1         2         3         4         5         6         7         8         9
 total charge-density along one line

------------------------ aborting loop because EDIFF is reached ----------------------------------------

[...]

  FORCE on cell =-STRESS in cart. coord.  units (eV):
  Direction    XX          YY          ZZ          XY          YZ          ZX
  Alpha Z   337.55297   337.55297   337.55297
  Ewald   -1739.27623 -1739.27623 -1739.27623    -0.00000    -0.00000     0.00000
  Hartree   759.43044   759.43044   759.43044    -0.00000    -0.00000    -0.00000
  E(xc)    -386.61280  -386.61280  -386.61280     0.00000    -0.00000    -0.00000
  Local     277.76935   277.76935   277.76935     0.00000     0.00000    -0.00000
  n-local  -750.50724  -743.26635  -735.74321     0.63441     0.55762     0.39150
  augment   114.94618   114.94618   114.94618    -0.00000     0.00000    -0.00000
  Kinetic  1380.16840  1380.95982  1376.94837    -3.84979    -3.51388    -2.46827
  Fock        0.00000     0.00000     0.00000     0.00000     0.00000     0.00000
  Total      -0.00348    -0.00348    -0.00348     0.00000     0.00000     0.00000
  in kB      -0.07735    -0.07735    -0.07735     0.00000     0.00000     0.00000

 VOLUME and BASIS-vectors are now :
  energy-cutoff  :      800.00
  volume of cell :       72.17
      direct lattice vectors                 reciprocal lattice vectors
     4.163382359 -0.000000000 -0.000000000     0.240189325  0.000000000  0.000000000
    -0.000000000  4.163382359  0.000000000     0.000000000  0.240189325  0.000000000
    -0.000000000 -0.000000000  4.163382359     0.000000000 -0.000000000  0.240189325

  length of vectors
     4.163382359  4.163382359  4.163382359     0.240189325  0.240189325  0.240189325

 FORCES acting on ions
    electron-ion (+dipol)            ewald-force                    non-local-force                 convergence-correction
   0.190E-13 0.320E-13 0.587E-13   0.739E-14 0.212E-14 -.201E-13   0.206E-22 0.110E-22 -.239E-23   -.104E-12 -.951E-14 0.181E-12
   0.210E-13 0.745E-13 0.438E-13   0.771E-14 0.234E-14 -.585E-14   -.220E-22 0.206E-22 -.432E-22   -.121E-12 0.443E-13 -.183E-12
   -.884E-15 0.282E-13 0.913E-13   0.568E-14 0.450E-14 -.603E-14   -.211E-22 0.969E-23 0.250E-22   -.168E-12 -.198E-13 -.180E-12
   0.370E-14 0.499E-11 -.558E-11   0.600E-14 0.471E-14 -.142E-13   0.146E-22 -.121E-22 0.125E-22   -.150E-12 -.258E-13 0.216E-12
   0.304E-13 0.420E-13 -.110E-11   0.195E-14 -.753E-14 0.916E-14   -.840E-23 -.772E-25 -.123E-22   0.252E-13 0.453E-13 0.883E-13
   0.285E-13 0.217E-11 0.896E-12   0.175E-14 0.259E-14 0.158E-13   -.112E-23 0.539E-25 0.725E-23   0.305E-13 0.498E-13 -.158E-12
   0.726E-13 0.486E-13 -.148E-13   -.140E-13 -.859E-14 0.157E-13   0.179E-22 -.238E-22 0.729E-23   0.826E-13 0.223E-13 -.157E-12
   0.702E-13 0.889E-13 0.613E-13   -.142E-13 0.153E-14 0.890E-14   0.922E-23 0.227E-22 -.935E-23   0.837E-13 0.479E-13 0.845E-13
   0.245E-12 0.747E-11 -.554E-11   0.223E-14 0.168E-14 0.336E-14   0.974E-23 0.281E-22 -.152E-22   -.320E-12 0.154E-12 -.109E-12

 POSITION                                       TOTAL-FORCE (eV/Angst)
     -0.00000      0.00000     -0.00000         0.000000      0.000000      0.000000
     -0.00000      2.08169      2.08169        -0.000000     -0.000000      0.000000
      2.08169     -0.00000      2.08169        -0.000000     -0.000000     -0.000000
      2.08169      2.08169     -0.00000         0.000000     -0.000000     -0.000000
      2.08169     -0.00000     -0.00000        -0.000000      0.000000     -0.000000
      2.08169      2.08169      2.08169        -0.000000      0.000000     -0.000000
     -0.00000     -0.00000      2.08169        -0.000000      0.000000      0.000000
     -0.00000      2.08169      0.00000        -0.000000     -0.000000     -0.000000
    total drift:                               -0.000000      0.000000     -0.000000

  FREE ENERGIE OF THE ION-ELECTRON SYSTEM (eV)
  free  energy   TOTEN  =       -52.94778576 eV

  energy  without entropy=      -52.94778576  energy(sigma->0) =      -52.94778576

 d Force = 0.0000000E+00[ 0.000E+00, 0.000E+00]  d Energy = 0.6476830E-02-0.648E-02
 d Force = 0.0000000E+00[ 0.000E+00, 0.000E+00]  d Ewald  =-0.2210613E+02 0.221E+02

 reached required accuracy - stopping structural energy minimisation

 total charge

# of ion       s       p       d       tot
    1        2.078   6.017   0.046   8.141
    2        2.078   6.017   0.046   8.141
    3        2.078   6.017   0.046   8.141
    4        2.078   6.017   0.046   8.141
    5        1.527   3.561   0.000   5.087
    6        1.527   3.561   0.000   5.087
    7        1.527   3.561   0.000   5.087
    8        1.527   3.561   0.000   5.087
tot         14.417  38.310   0.186  52.912