 vasp.6.2.0 18Jan21 (build Mar 03 2021 13:27:41) complex

 executed on             LinuxIFC date 2021.07.16  05:02:40

 INCAR:
   SYSTEM = TiO2-rutile
   ISMEAR = 0
   SIGMA = 0.05
   EDIFF = 1E-5
   ALGO = Fast
   ISTART = 1
   ISYM = 0
   IBRION = -1
   NSW = 0
   EDIFFG = -0.01
   ISIF = 0
   ENCUT = 500
   PREC = Accurate
   LASPH = .TRUE.
   LREAL = Auto
   ISPIN = 1
   NELM = 500
   NELMIN = 4
   NCORE = 20
   LWAVE = .FALSE.
   LCHARG = .FALSE.
   LORBIT = 11

 POTCAR:    PAW Ti_sv 26Sep2005
 POTCAR:    PAW O 22Mar2012
 POTCAR:    PAW Ti_sv 26Sep2005
   VRHFIN =Ti: 3s3p4s3d

   TITEL  = PAW Ti_sv 26Sep2005
   POMASS =   47.880; ZVAL   =   12.000    mass and valenz
   ENMAX  =  274.719; ENMIN  =  206.039 eV

   TITEL  = PAW O 22Mar2012
   POMASS =   16.000; ZVAL   =    6.000    mass and valenz
   ENMAX  =  400.000; ENMIN  =  300.000 eV

 Optimization of the real space projectors (new method)

 maximal supplied QI-value         = 16.25
 optimisation between [QCUT,QGAM] = [ 11.38, 22.75] = [ 36.24,144.96] Ry
 Optimized for a Real-space Cutoff    1.27 Angstroem

   l    n(q)    QCUT    max X(q) W(low)/X(q) W(high)/X(q)  e(spline)
   0      9    11.376    12.197    0.54E-04    0.21E-04    0.24E-07
   0      9    11.376    11.139    0.92E-04    0.47E-05    0.33E-07
   1      8    11.376     4.011    0.10E-03    0.98E-04    0.29E-07
   1      8    11.376     6.084    0.81E-04    0.18E-03    0.11E-06
   2      8    11.376    46.184    0.13E-03    0.88E-03    0.24E-06
   2      8    11.376    41.673    0.13E-03    0.85E-03    0.23E-06
 Optimization of the real space projectors (new method)

 maximal supplied QI-value         = 24.76
 optimisation between [QCUT,QGAM] = [ 11.39, 22.77] = [ 36.31,145.25] Ry
 Optimized for a Real-space Cutoff    1.10 Angstroem

   l    n(q)    QCUT    max X(q) W(low)/X(q) W(high)/X(q)  e(spline)
   0      7    11.387    20.659    0.22E-03    0.50E-03    0.19E-06
   0      7    11.387    15.633    0.22E-03    0.53E-03    0.20E-06
   1      7    11.387     5.864    0.22E-03    0.73E-03    0.24E-06
   1      7    11.387     5.285    0.18E-03    0.60E-03    0.21E-06
  PAW Ti_sv 26Sep2005                   :
  PAW O 22Mar2012                       :

 POSCAR: Ti  O
  positions in direct lattice
  velocities in cartesian coordinates
 exchange correlation table for  LEXCH =        2
   RHO(1)=    0.500       N(1)  =     2000
   RHO(2)=  100.500       N(2)  =     4000

 ion  position               nearest neighbor table
   1  0.250  0.125  0.110-  68 1.93  67 1.93  83 1.93  84 1.94  65 1.95  66 1.96
   2  1.000  0.000  0.110- 129 1.93 177 1.93  65 1.93 112 1.93 143 1.95  71 1.96
   3  0.500  0.120  0.362-  72 1.88 134 1.91  88 1.95 133 1.95  69 1.95 150 1.97  27 2.80  11 2.81

   4  0.251  0.000  0.360-  69 1.93 116 1.93  70 1.94 117 1.94  68 1.95  75 1.96  12 2.92  28 2.92

[...]

  37  0.750  0.125  0.610- 139 1.93 138 1.93 154 1.93 155 1.94 137 1.95 136 1.97
  38  0.500  0.000  0.611- 142 1.91  74 1.94 121 1.94 136 1.94 184 1.94  72 1.94
  39  1.000  0.125  0.860-  95 1.93  79 1.93 159 1.93 143 1.94  78 1.96 140 1.96
  40  0.750  1.000  0.860- 188 1.93 140 1.93 189 1.94 141 1.94 130 1.95 139 1.96
  41  0.750  0.375  0.110- 162 1.93 146 1.93 163 1.93 147 1.94 145 1.95 144 1.97  49 2.92
  42  0.500  0.249  0.104-  96 1.89 128 1.92  66 1.92 144 1.94  82 1.94 150 1.98  34 2.91
  43  1.000  0.375  0.360- 103 1.93  87 1.93 167 1.93 151 1.93  86 1.97 148 1.97  51 2.92
  44  0.751  0.250  0.360- 132 1.92 148 1.92 133 1.94 147 1.95 154 1.95 149 1.98  36 2.92
  45  0.751  0.375  0.609- 154 1.93 170 1.93 155 1.93 171 1.94 153 1.95 152 1.98  53 2.92
  46  0.500  0.251  0.607- 136 1.92  74 1.92 152 1.96  90 1.96  88 1.96 158 1.97
  47  1.000  0.375  0.860- 110 1.93  95 1.93 175 1.93 159 1.93 156 1.96  94 1.96
  48  0.750  0.250  0.860- 140 1.93 156 1.93 141 1.94 157 1.94 146 1.96 155 1.96
  49  0.750  0.625  0.110- 162 1.93 178 1.93 163 1.93 179 1.94 161 1.95 160 1.97  41 2.92
  50  0.500  0.500  0.110- 111 1.92  82 1.93 144 1.93  98 1.93 160 1.93 166 2.07
  51  0.000  0.625  0.360- 103 1.93 118 1.93 167 1.93 183 1.93 102 1.97 164 1.97  43 2.92
  52  0.749  0.500  0.360- 148 1.94 164 1.94 149 1.94 165 1.94 163 1.95 170 1.95
  53  0.751  0.625  0.609- 186 1.93 170 1.93 187 1.93 171 1.94 169 1.95 168 1.98  45 2.92
  54  0.500  0.500  0.629- 174 1.77 105 1.91 168 1.91  90 1.91 152 1.91
  55  1.000  0.625  0.860- 110 1.93 126 1.93 175 1.93 191 1.93 172 1.96 109 1.96
  56  0.750  0.500  0.860- 156 1.93 172 1.93 157 1.94 173 1.94 171 1.95 162 1.97
  57  0.750  0.875  0.110- 131 1.93 130 1.93 178 1.93 179 1.94 177 1.95 176 1.96
  58  0.500  0.751  0.104- 127 1.89 113 1.92 176 1.92  98 1.94 160 1.94 182 1.98  34 2.91
  59  0.000  0.875  0.360-  71 1.93 118 1.93 135 1.93 183 1.94 117 1.96 180 1.96
  60  0.751  0.750  0.360- 180 1.92 164 1.92 181 1.94 179 1.95 186 1.95 165 1.99  36 2.92
  61  0.750  0.875  0.610- 139 1.93 138 1.93 186 1.93 187 1.94 185 1.95 184 1.97
  62  0.500  0.749  0.607- 184 1.92 121 1.92 168 1.96 105 1.96 119 1.96 190 1.97
  63  1.000  0.875  0.860- 126 1.93  79 1.93 191 1.93 143 1.94 188 1.96 125 1.96
  64  0.750  0.750  0.860- 188 1.93 172 1.93 189 1.94 173 1.94 178 1.96 187 1.96
  65  0.098  0.125  0.110-  10 1.93   2 1.93   1 1.95
  66  0.402  0.125  0.108-  42 1.92  34 1.93   1 1.96
  67  0.250  1.000  0.012-  25 1.93   1 1.93   8 1.95
  68  0.251  1.000  0.208-   1 1.93  25 1.93   4 1.95
  69  0.349  0.125  0.361-   4 1.93  12 1.94   3 1.95
  70  0.152  0.126  0.360-  12 1.92   4 1.94  35 1.96
  71  0.000  1.000  0.262-  35 1.93  59 1.93   2 1.96
  72  0.500  1.000  0.460-   3 1.88  27 1.88  38 1.94
  73  0.098  0.125  0.610-  14 1.93   6 1.94   5 1.95
  74  0.402  0.126  0.608-  46 1.92  38 1.94   5 1.97
  75  0.250  0.000  0.512-   5 1.93  29 1.93   4 1.96
  76  0.251  0.000  0.708-   5 1.93  29 1.93   8 1.96
  77  0.349  0.125  0.859-  16 1.94   8 1.94   7 1.95
  78  0.152  0.125  0.860-  16 1.93   8 1.93  39 1.96
  79  1.000  0.000  0.762-  63 1.93  39 1.93   6 1.95
  80  0.500  1.000  0.956-   7 1.93  31 1.93  34 1.96
  81  0.098  0.375  0.110-  10 1.93  18 1.93   9 1.95
  82  0.402  0.375  0.112-  50 1.93  42 1.94   9 1.97
  83  0.250  0.250  0.012-   9 1.93   1 1.93  16 1.96
  84  0.251  0.250  0.209-   1 1.94   9 1.94  12 1.95
  85  0.352  0.377  0.363-  11 1.94  20 1.94  12 1.98
  86  0.153  0.375  0.360-  12 1.92  20 1.94  43 1.97
  87  1.000  0.250  0.262-  35 1.93  43 1.93  10 1.96
  88  0.500  0.252  0.455-  11 1.90   3 1.95  46 1.96
  89  0.098  0.375  0.610-  22 1.93  14 1.93  13 1.95
  90  0.403  0.380  0.603-  54 1.91  46 1.96  13 1.98
  91  0.250  0.250  0.512-  13 1.93   5 1.93  12 1.95
  92  0.252  0.251  0.708-  13 1.93   5 1.94  16 1.96
  93  0.349  0.375  0.861-  24 1.94  16 1.94  15 1.94
  94  0.152  0.375  0.860-  16 1.93  24 1.93  47 1.96
  95  1.000  0.250  0.762-  39 1.93  47 1.93  14 1.96
  96  0.500  0.248  0.957-  15 1.87  42 1.89   7 1.95
[...]
 177  0.902  0.875  0.110-  26 1.93   2 1.93  57 1.95
 178  0.750  0.750  0.012-  49 1.93  57 1.93  64 1.96
 179  0.749  0.750  0.209-  57 1.94  49 1.94  60 1.95
 180  0.848  0.874  0.360-  60 1.92  36 1.94  59 1.96
 181  0.651  0.875  0.361-  36 1.93  60 1.94  27 1.95
 182  0.500  0.758  0.257-  19 1.76  27 1.97  58 1.98
 183  0.000  0.750  0.458-  51 1.93  59 1.94  30 1.95
 184  0.598  0.874  0.608-  62 1.92  38 1.94  61 1.97
 185  0.902  0.875  0.610-  30 1.93   6 1.94  61 1.95
 186  0.750  0.750  0.512-  53 1.93  61 1.93  60 1.95
 187  0.748  0.749  0.708-  53 1.93  61 1.94  64 1.96
 188  0.848  0.875  0.860-  64 1.93  40 1.93  63 1.96
 189  0.651  0.875  0.859-  64 1.94  40 1.94  31 1.95
 190  0.500  0.747  0.760-  23 1.93  31 1.96  62 1.97
 191  1.000  0.750  0.958-  63 1.93  55 1.93  26 1.95

IMPORTANT INFORMATION: All symmetrisations will be switched off!
NOSYMM: (Re-)initialisation of all symmetry stuff for point group C_1.

                                     Primitive cell

  volume of cell :    1939.6039

  direct lattice vectors                    reciprocal lattice vectors
    12.881025995  0.000000000  0.000000000     0.077633567  0.000000000  0.000000000
     0.000000000 11.689936215  0.000000000     0.000000000  0.085543666  0.000000000
     0.000000000  0.000000000 12.881025995     0.000000000  0.000000000  0.077633567

  length of vectors
    12.881025995 11.689936215 12.881025995     0.077633567  0.085543666  0.077633567

  position of ions in fractional coordinates (direct lattice)
     0.249514586  0.125012550  0.110188129
     0.999999300  0.000000729  0.109785431
     0.500002640  0.119643442  0.362308615
     0.250569142  0.000002837  0.360110234
     0.249680591  0.125040973  0.610218618
     0.999998086  0.999995921  0.610191624
     0.500007408  0.123474636  0.856299454
     0.250117321  0.000009865  0.860299836
     0.249667992  0.375149421  0.110195868
     0.000004903  0.250090598  0.110094413
     0.499996978  0.358919446  0.343763142
     0.249347791  0.249675514  0.360205833
     0.249397119  0.375135557  0.609191750
     0.999999189  0.250004237  0.610070651
     0.499995997  0.371396783  0.864333745
     0.249919605  0.250049481  0.860055522
     0.249665080  0.624855110  0.110191894
     0.999997585  0.500000788  0.110025766
     0.500005241  0.641082887  0.343763042
     0.251304466  0.499997800  0.360150549
     0.249386162  0.624843060  0.609165940
     0.000002776  0.499997158  0.610231327
     0.499991121  0.628605969  0.864334190
     0.250337025  0.500006683  0.859759154
     0.249509109  0.874986988  0.110183371
     0.999998897  0.749908965  0.110084341
     0.500005479  0.880355146  0.362307239
     0.249352862  0.750322748  0.360201733
     0.249686703  0.874954172  0.610224427
     0.000002527  0.749993964  0.610074171
     0.500000188  0.876528943  0.856293497
     0.249914214  0.749957701  0.860045453
     0.750488584  0.125012703  0.110186560
     0.500000371  0.999994471  0.107961076
     0.999998036  0.124965274  0.360097799
     0.749433542  0.999998286  0.360110217
     0.750319251  0.125043830  0.610221789
     0.499992828  0.000003099  0.610879530
     0.999999889  0.125127739  0.859933008
     0.749882643  0.999999343  0.860305559
     0.750333683  0.375143393  0.110198008
     0.500002631  0.248562624  0.103590252
     0.999999300  0.375118168  0.360038292
     0.750651399  0.249675371  0.360206685
     0.750615392  0.375154591  0.609172405
     0.500011921  0.250840985  0.606689463
     0.999997894  0.375059065  0.860093037
     0.750086743  0.250050600  0.860049243
     0.750330214  0.624858735  0.110198175
     0.499997362  0.499996364  0.110326390
     0.000003238  0.624871763  0.360044037
     0.748686499  0.499998116  0.360150375
     0.750615408  0.624848164  0.609174851
     0.499995731  0.500001944  0.629474239
     0.999995920  0.624938196  0.860087588
     0.749643825  0.500000628  0.859780334
     0.750491458  0.874988660  0.110187024
     0.499998768  0.751422800  0.103588148
     0.000017619  0.875018666  0.360094182
     0.750695012  0.750321511  0.360209968
[...]
     0.901690010  0.874937400  0.110340903
     0.749504869  0.749766704  0.012014842
     0.748672053  0.749995252  0.208769511
[...]
   -.335E+01 0.193E-01 0.173E+02   0.306E+01 -.203E-01 -.174E+02   0.373E-01 0.210E-03 0.318E-01   0.241E+00 0.519E-03 0.994E-03
   0.365E+01 0.711E+01 -.862E+01   -.391E+01 -.713E+01 0.867E+01   0.325E-01 0.602E-02 0.240E-01   0.221E+00 0.223E-01 -.794E-01
   0.291E-03 0.492E+01 -.503E+01   0.107E-03 -.495E+01 0.507E+01   -.235E-04 0.129E-01 0.153E-01   -.944E-04 0.146E-01 -.578E-01
   -.340E-01 0.572E+02 -.224E+02   0.363E-01 -.570E+02 0.225E+02   -.143E-02 -.394E+00 -.832E-01   -.177E-03 0.146E+00 -.368E-02
   -.332E+02 0.453E+02 -.162E+02   0.327E+02 -.452E+02 0.163E+02   0.340E+00 -.163E+00 -.631E-01   0.186E+00 0.462E-01 -.269E-02
   -.105E+02 0.182E+02 0.284E+01   0.103E+02 -.182E+02 -.297E+01   0.393E-01 -.560E-02 0.483E-01   0.231E+00 0.190E-01 0.793E-01
   0.498E-02 0.753E+01 0.560E+01   -.489E-02 -.753E+01 -.566E+01   -.355E-03 -.301E-03 0.481E-02   -.112E-03 -.179E-03 0.563E-01
   0.183E-01 0.223E+02 0.286E+02   -.186E-01 -.221E+02 -.286E+02   -.263E-03 -.210E+00 -.407E-01   0.400E-03 0.605E-01 0.676E-02
   -.108E+00 0.965E+01 0.154E+02   -.230E+00 -.966E+01 -.154E+02   0.670E-01 -.116E-01 0.442E-02   0.269E+00 0.242E-01 0.265E-02
   -.369E+01 -.713E+01 -.860E+01   0.394E+01 0.716E+01 0.866E+01   -.323E-01 -.560E-02 0.230E-01   -.220E+00 -.229E-01 -.792E-01
   -.270E-02 0.341E-02 -.110E+02   0.263E-02 -.564E-02 0.111E+02   0.164E-05 0.140E-02 0.815E-01   -.130E-03 0.909E-04 -.117E+00
   0.412E-02 -.470E+01 -.578E+01   -.387E-02 0.475E+01 0.576E+01   0.377E-03 -.354E-01 0.234E-01   -.288E-03 -.731E-02 -.850E-02
   -.805E+01 0.444E-02 -.584E+01   0.823E+01 -.622E-02 0.586E+01   0.626E-01 0.532E-03 -.113E-01   -.243E+00 0.603E-03 -.544E-02
   0.105E+02 -.182E+02 0.281E+01   -.102E+02 0.182E+02 -.293E+01   -.406E-01 0.664E-02 0.487E-01   -.231E+00 -.190E-01 0.793E-01
   0.274E-02 0.308E-01 0.242E+01   -.316E-02 -.312E-01 -.239E+01   0.976E-03 -.371E-03 -.151E+00   -.145E-03 0.240E-03 0.119E+00
   0.121E-02 -.162E+01 0.285E+01   -.156E-02 0.165E+01 -.287E+01   0.558E-04 -.237E-01 0.147E-01   0.202E-03 -.400E-02 0.106E-01
   -.445E+01 -.130E-01 0.726E+01   0.478E+01 0.124E-01 -.723E+01   -.301E-01 0.220E-03 -.380E-01   -.296E+00 0.276E-03 0.270E-02
   0.565E+01 -.872E+01 -.175E+02   -.542E+01 0.874E+01 0.176E+02   -.487E-01 0.568E-03 0.123E-01   -.187E+00 -.237E-01 -.922E-01
   -.453E-02 -.295E+02 -.179E+02   0.484E-02 0.293E+02 0.177E+02   -.138E-03 0.257E+00 0.411E+00   -.482E-03 -.756E-01 -.168E+00
   -.776E-03 -.848E+01 -.769E+01   0.500E-03 0.848E+01 0.767E+01   0.534E-04 0.106E-01 0.197E-01   0.654E-04 -.892E-02 -.181E-02
   0.332E+02 -.453E+02 -.162E+02   -.327E+02 0.452E+02 0.163E+02   -.341E+00 0.164E+00 -.641E-01   -.186E+00 -.475E-01 -.243E-02
   0.565E+02 -.205E+02 0.235E+02   -.561E+02 0.205E+02 -.236E+02   -.164E+00 -.170E-01 0.679E-01   -.183E+00 -.210E-01 0.910E-01
   0.188E-01 -.939E+02 0.437E+02   -.189E-01 0.939E+02 -.440E+02   0.868E-03 0.123E+00 0.155E+00   0.115E-03 -.913E-01 0.148E+00
   0.120E-01 -.360E+01 0.432E+01   -.120E-01 0.360E+01 -.434E+01   0.238E-03 0.101E-01 0.213E-01   0.815E-04 -.424E-02 0.273E-02
   0.107E+00 -.964E+01 0.154E+02   0.231E+00 0.966E+01 -.154E+02   -.677E-01 0.101E-01 0.371E-02   -.269E+00 -.249E-01 0.232E-02
   0.567E+01 0.872E+01 -.175E+02   -.543E+01 -.875E+01 0.176E+02   -.481E-01 -.922E-03 0.121E-01   -.187E+00 0.241E-01 -.919E-01
   0.826E-02 -.182E-01 -.769E+02   -.734E-02 0.169E-01 0.760E+02   0.174E-03 0.113E-02 0.109E+01   -.493E-03 0.339E-03 -.186E+00
   -.265E-01 0.849E+01 -.767E+01   0.284E-01 -.849E+01 0.765E+01   -.114E-02 -.834E-02 0.192E-01   0.260E-03 0.859E-02 -.211E-02
   0.882E+02 -.117E-01 -.350E+02   -.881E+02 0.118E-01 0.350E+02   -.877E-02 0.244E-03 0.294E-01   -.138E+00 -.327E-03 -.530E-03
   0.565E+02 0.205E+02 0.235E+02   -.561E+02 -.206E+02 -.237E+02   -.165E+00 0.167E-01 0.675E-01   -.183E+00 0.203E-01 0.910E-01
   0.315E-02 0.692E-02 0.265E+03   -.358E-02 -.721E-02 -.262E+03   0.370E-03 -.459E-03 -.285E+01   0.469E-03 0.334E-03 0.196E+00
   0.185E-01 0.358E+01 0.430E+01   -.191E-01 -.358E+01 -.433E+01   0.478E-03 -.969E-02 0.221E-01   0.401E-03 0.417E-02 0.297E-02
   0.331E+01 -.211E-03 0.175E+02   -.303E+01 0.568E-03 -.175E+02   -.379E-01 -.111E-03 0.303E-01   -.241E+00 -.142E-03 0.808E-03
   -.365E+01 0.712E+01 -.863E+01   0.390E+01 -.715E+01 0.868E+01   -.325E-01 0.577E-02 0.232E-01   -.220E+00 0.226E-01 -.793E-01
   -.611E-02 0.294E+02 -.179E+02   0.632E-02 -.292E+02 0.177E+02   0.217E-03 -.255E+00 0.411E+00   -.156E-03 0.752E-01 -.168E+00
   0.291E-01 0.462E+01 -.576E+01   -.273E-01 -.466E+01 0.575E+01   -.172E-02 0.363E-01 0.242E-01   -.138E-03 0.758E-02 -.860E-02
   0.334E+02 0.453E+02 -.162E+02   -.328E+02 -.451E+02 0.162E+02   -.337E+00 -.165E+00 -.630E-01   -.185E+00 0.471E-01 -.308E-02
[...]
   -.125E+01 0.371E+01 0.615E+02   0.127E+01 -.372E+01 -.658E+02   0.990E-01 -.123E-01 0.434E+01   -.120E+00 0.160E-01 -.699E-01
   0.735E+01 0.976E+01 -.694E+02   -.763E+01 -.978E+01 0.735E+02   0.374E+00 -.909E-02 -.408E+01   -.978E-01 0.230E-01 -.120E-01
   -.633E+02 -.239E-01 -.347E+01   0.680E+02 0.476E+00 0.351E+01   -.466E+01 -.459E+00 -.390E-01   -.423E-01 0.718E-02 -.340E-02
   0.571E+02 0.215E+02 -.634E+01   -.610E+02 -.222E+02 0.627E+01   0.407E+01 0.644E+00 0.731E-01   -.218E+00 0.356E-01 -.534E-03
   -.366E-02 -.246E+02 0.654E+02   0.294E-02 0.317E+02 -.738E+02   0.706E-03 -.722E+01 0.830E+01   0.163E-04 0.112E+00 0.157E-01
   0.212E-02 0.490E+01 -.615E+02   -.271E-02 -.490E+01 0.657E+02   0.417E-03 -.543E-02 -.423E+01   0.432E-04 0.379E-02 0.565E-02
   -.633E+02 0.179E+02 0.615E+01   0.681E+02 -.179E+02 -.638E+01   -.466E+01 -.934E-01 0.173E+00   -.154E+00 0.368E-01 0.570E-01
   0.628E+02 0.308E+01 0.111E+01   -.669E+02 -.305E+01 -.108E+01   0.412E+01 -.267E-01 -.603E-01   -.331E-01 -.442E-02 0.294E-01
   0.180E+02 0.170E+02 0.633E+02   -.180E+02 -.168E+02 -.676E+02   0.100E+00 -.178E+00 0.433E+01   -.947E-01 0.158E-01 0.119E-01
   0.154E+02 0.993E+01 -.528E+02   -.159E+02 -.100E+02 0.571E+02   0.591E+00 0.628E-01 -.441E+01   -.118E+00 0.106E-01 0.710E-01
   -.636E+02 0.127E+01 0.477E+01   0.681E+02 -.119E+01 -.488E+01   -.451E+01 -.736E-01 0.105E+00   -.696E-01 0.366E-02 0.384E-02
   0.549E+02 0.530E+01 0.659E+01   -.587E+02 -.543E+01 -.647E+01   0.402E+01 0.114E+00 -.128E+00   -.265E+00 0.169E-01 -.173E-03
   -.101E-02 0.157E+02 0.890E+02   0.227E-02 -.158E+02 -.938E+02   -.164E-02 0.411E-01 0.462E+01   0.670E-06 0.622E-01 0.165E+00
   -.487E-02 0.224E+01 -.606E+02   0.515E-02 -.224E+01 0.649E+02   -.558E-03 -.294E-02 -.427E+01   0.177E-03 0.520E-02 -.327E-01
   0.202E-01 -.317E-01 -.133E+02   0.151E-12 -.138E-11 0.426E-12   -.109E-01 0.311E-01 0.132E+02   0.149E-04 -.906E-03 -.835E-01

 POSITION                                       TOTAL-FORCE (eV/Angst)
      3.21400      1.46139      1.41934        -0.002362     -0.000891      0.001234
     12.88102      0.00001      1.41415         0.000200      0.000034      0.001946
      6.44055      1.39862      4.66691        -0.000670      0.014558      0.008214
      3.22759      0.00003      4.63859        -0.002006     -0.000286     -0.001501
      3.21614      1.46172      7.86024        -0.000422     -0.000842     -0.000435
     12.88100     11.68989      7.85989         0.000522      0.000747      0.002926
      6.44061      1.44341     11.03002        -0.001145      0.006032     -0.004841
      3.22177      0.00012     11.08154        -0.003594     -0.002333      0.000740
      3.21598      4.38547      1.41944        -0.000838     -0.000778     -0.000612
      0.00006      2.92354      1.41813        -0.000888      0.002094      0.000157
      6.44047      4.19575      4.42802         0.000123      0.011964     -0.005749
      3.21186      2.91869      4.63982        -0.001228     -0.000535      0.000828
      3.21249      4.38531      7.84701         0.000845     -0.000276     -0.001765
     12.88102      2.92253      7.85834         0.000736     -0.000261      0.001769
      6.44046      4.34160     11.13351         0.000246      0.003690      0.001728
      3.21922      2.92306     11.07840        -0.002598      0.001399     -0.001027
      3.21594      7.30452      1.41938        -0.000573      0.000315     -0.000310
     12.88099      5.84498      1.41724         0.000031     -0.000216      0.001790
      6.44058      7.49422      4.42802        -0.000066     -0.012756     -0.005573
      3.23706      5.84494      4.63911        -0.000309      0.000537      0.004068
      3.21235      7.30438      7.84668         0.001114      0.000068     -0.002015
      0.00004      5.84493      7.86041        -0.000046      0.000014      0.003061
      6.44040      7.34836     11.13351         0.001424     -0.003730      0.001723
      3.22460      5.84505     11.07458        -0.003333     -0.000257      0.001771
      3.21393     10.22854      1.41927        -0.001102      0.000916      0.001570
     12.88101      8.76639      1.41800         0.000231     -0.002012      0.001409
      6.44058     10.29130      4.66689         0.000590     -0.014447      0.008168
      3.21192      8.77123      4.63977        -0.000487      0.000386      0.001278
      3.21622     10.22816      7.86032        -0.001011      0.000180     -0.000684
      0.00003      8.76738      7.85838        -0.000424      0.000711      0.001480
      6.44052     10.24657     11.02994        -0.000285     -0.007397     -0.006241
      3.21915      8.76696     11.07827        -0.002406     -0.000480     -0.000700
      9.66706      1.46139      1.41932         0.002184     -0.000521      0.001130
      6.44052     11.68987      1.39065        -0.000247     -0.000739     -0.001542
     12.88100      1.46084      4.63843         0.000287      0.002316      0.001052
      9.65347     11.68992      4.63859         0.000658     -0.000636     -0.001224
      9.66488      1.46175      7.86028         0.000294     -0.000613     -0.000070
      6.44042      0.00004      7.86876         0.000357     -0.000527      0.002489
     12.88102      1.46274     11.07682        -0.000143     -0.000304     -0.000755
      9.65926     11.68993     11.08162         0.003525     -0.000067     -0.000780
      9.66507      4.38540      1.41946         0.001178     -0.000748      0.001812
      6.44055      2.90568      1.33435        -0.000354      0.002623      0.001638
     12.88102      4.38511      4.63766        -0.000205      0.001019      0.000056
      9.66916      2.91869      4.63983         0.001363     -0.000465      0.000922
      9.66870      4.38553      7.84677        -0.001184      0.000280     -0.001049
      6.44067      2.93232      7.81478         0.000815     -0.000247     -0.000626
     12.88100      4.38442     11.07888         0.000247      0.001080     -0.001316
      9.66189      2.92308     11.07832         0.001838      0.000660     -0.001323
      9.66502      7.30456      1.41947         0.001478      0.000996      0.002074
      6.44048      5.84493      1.42112         0.000552      0.000147      0.006046
      0.00004      7.30471      4.63774         0.001001     -0.000231     -0.001210
      9.64385      5.84495      4.63911         0.000095      0.000086      0.002640
      9.66870      7.30444      7.84680        -0.000722     -0.000977     -0.001417
      6.44046      5.84499      8.10827         0.000366     -0.000413     -0.003078
     12.88097      7.30549     11.07881         0.000214     -0.000586     -0.000321
      9.65618      5.84498     11.07485         0.002025      0.000112      0.000308
      9.66710     10.22856      1.41932         0.000530     -0.000051      0.001385
      6.44050      8.78408      1.33432         0.000229      0.001006      0.002048
      0.00023     10.22891      4.63838        -0.000064     -0.001447      0.001377
      9.66972      8.77121      4.63987         0.001255      0.000369      0.001211
[...]
     11.61469     10.22796      1.42130        -0.000184     -0.000947      0.000594
      9.65439      8.76472      0.15476         0.000452     -0.001064     -0.001857
      9.64366      8.76740      2.68917        -0.002044     -0.002986      0.001995
     10.92007     10.22227      4.64160         0.000752      0.000457     -0.001135
      8.38963     10.23104      4.64448        -0.001869      0.000290     -0.000925
      6.44050      8.85953      3.31101        -0.000051     -0.003045     -0.003134
      0.00003      8.76443      5.90451        -0.000174      0.000183      0.001535
      7.69694     10.21421      7.83677         0.002956     -0.001065     -0.001071
     11.61366     10.22693      7.86305        -0.001171      0.002140      0.000510
      9.65964      8.76663      6.59282         0.000448     -0.000212     -0.002892
      9.63288      8.75475      9.11799         0.000125      0.001075      0.002229
     10.92077     10.22597     11.07257        -0.002118      0.000186     -0.000261
      8.38806     10.22601     11.06854         0.001228      0.000721     -0.000174
      6.44058      8.73335      9.78905        -0.000420     -0.002817      0.008059
     12.88101      8.76797     12.34451        -0.000149     -0.000241      0.001580
    total drift:                                0.009280     -0.001446     -0.188504

  FREE ENERGIE OF THE ION-ELECTRON SYSTEM (eV)
  free  energy   TOTEN  =     -1870.83552600 eV

  energy  without entropy=    -1870.77368932  energy(sigma->0) =    -1870.80460766

 total charge

# of ion       s       p       d       tot
    1        2.233   6.326   1.783  10.343
    2        2.233   6.326   1.781  10.340
    3        2.235   6.334   1.830  10.399
    4        2.233   6.326   1.785  10.345
    5        2.233   6.326   1.783  10.341
    6        2.233   6.326   1.782  10.340
    7        2.232   6.325   1.793  10.350
    8        2.233   6.325   1.781  10.339
    9        2.233   6.326   1.784  10.344
   10        2.233   6.327   1.784  10.344
   11        2.252   6.315   1.937  10.504
   12        2.232   6.324   1.783  10.339
   13        2.233   6.327   1.785  10.345
   14        2.234   6.327   1.784  10.344
   15        2.238   6.333   1.799  10.369
   16        2.233   6.325   1.782  10.340
   17        2.233   6.326   1.784  10.344
   18        2.233   6.326   1.783  10.342
   19        2.252   6.315   1.937  10.504
   20        2.233   6.327   1.783  10.343
   21        2.233   6.327   1.785  10.345
   22        2.233   6.327   1.783  10.343
   23        2.238   6.333   1.799  10.369
   24        2.233   6.326   1.782  10.341
   25        2.233   6.326   1.783  10.343
   26        2.233   6.327   1.784  10.344
   27        2.235   6.334   1.830  10.399
   28        2.232   6.324   1.783  10.339
   29        2.233   6.326   1.783  10.341
   30        2.234   6.327   1.784  10.344
   31        2.232   6.325   1.793  10.350
   32        2.233   6.325   1.782  10.340
   33        2.233   6.326   1.783  10.343
   34        2.233   6.325   1.786  10.344
   35        2.233   6.326   1.782  10.340
   36        2.233   6.326   1.785  10.345
   37        2.233   6.326   1.783  10.341
   38        2.235   6.331   1.797  10.363
   39        2.233   6.326   1.781  10.340
   40        2.233   6.325   1.781  10.339
   41        2.233   6.326   1.784  10.344
   42        2.238   6.337   1.813  10.388
   43        2.232   6.324   1.779  10.335
   44        2.232   6.324   1.783  10.339
   45        2.233   6.327   1.785  10.345
   46        2.230   6.318   1.769  10.317
   47        2.233   6.326   1.782  10.340
   48        2.233   6.325   1.782  10.340
   49        2.233   6.326   1.784  10.344
   50        2.230   6.318   1.782  10.330
   51        2.232   6.324   1.779  10.335
   52        2.233   6.327   1.783  10.343
   53        2.233   6.327   1.785  10.345
   54        2.254   6.326   1.934  10.514
   55        2.233   6.326   1.782  10.340
   56        2.233   6.326   1.782  10.341
   57        2.233   6.326   1.783  10.343
   58        2.238   6.337   1.813  10.388
   59        2.233   6.326   1.782  10.340
   60        2.232   6.324   1.783  10.339
[...]
  177        1.564   3.494   0.000   5.058
  178        1.564   3.493   0.000   5.057
  179        1.564   3.492   0.000   5.057
  180        1.564   3.493   0.000   5.058
  181        1.564   3.495   0.000   5.059
  182        1.573   3.512   0.000   5.085
  183        1.564   3.493   0.000   5.057
  184        1.564   3.491   0.000   5.055
  185        1.564   3.493   0.000   5.058
  186        1.565   3.494   0.000   5.059
  187        1.564   3.491   0.000   5.055
  188        1.564   3.493   0.000   5.057
  189        1.564   3.493   0.000   5.057
  190        1.563   3.483   0.000   5.046
  191        1.564   3.492   0.000   5.057
tot        341.663 848.569 114.7551304.987