 vasp.6.2.0 18Jan21 (build Mar 03 2021 13:27:41) complex

 executed on             LinuxIFC date 2021.06.30  02:37:05

 INCAR:
   SYSTEM = TiO2-rutile
   ISMEAR = 0
   SIGMA = 0.05
   EDIFF = 1E-5
   ALGO = Fast
   ISTART = 1
   ISYM = 0
   IBRION = -1
   NSW = 0
   EDIFFG = -0.01
   ENCUT = 500
   PREC = Accurate
   LASPH = .TRUE.
   LREAL = Auto
   ISPIN = 1
   NELM = 500
   NELMIN = 4
   NCORE = 20
   LWAVE = .FALSE.
   LCHARG = .FALSE.
   LORBIT = 11

 POTCAR:    PAW_PBE Ti_sv 26Sep2005
 POTCAR:    PAW_PBE O 08Apr2002
|           W    W    AA    RRRRR   N    N  II  N    N   GGGG   !!!           |
|           W    W   A  A   R    R  NN   N  II  NN   N  G    G  !!!           |
|           W    W  A    A  R    R  N N  N  II  N N  N  G       !!!           |
|           W WW W  AAAAAA  RRRRR   N  N N  II  N  N N  G  GGG   !            |
|           WW  WW  A    A  R   R   N   NN  II  N   NN  G    G                |
|           W    W  A    A  R    R  N    N  II  N    N   GGGG   !!!           |
|     For optimal performance we recommend to set                             |
|       NCORE = 2 up to number-of-cores-per-socket                            |
|     This setting can greatly improve the performance of VASP for DFT.       |
|     The default, NCORE=1 might be grossly inefficient on modern             |
|     multi-core architectures or massively parallel machines. Do your        |
|     Unfortunately you need to use the default for GW and RPA                |
|     calculations (for HF NCORE is supported but not extensively tested      |
|     yet).                                                                   |

   TITEL  = PAW_PBE Ti_sv 26Sep2005
   POMASS =   47.880; ZVAL   =   12.000    mass and valenz
   ENMAX  =  274.610; ENMIN  =  205.957 eV

   TITEL  = PAW_PBE O 08Apr2002
   POMASS =   16.000; ZVAL   =    6.000    mass and valenz
   ENMAX  =  400.000; ENMIN  =  300.000 eV

 Optimization of the real space projectors (new method)

 maximal supplied QI-value         = 16.25
 optimisation between [QCUT,QGAM] = [ 11.38, 22.75] = [ 36.24,144.96] Ry
 Optimized for a Real-space Cutoff    1.27 Angstroem

   l    n(q)    QCUT    max X(q) W(low)/X(q) W(high)/X(q)  e(spline)
   0      9    11.376    12.277    0.53E-04    0.25E-04    0.25E-07
   0      9    11.376    11.419    0.89E-04    0.67E-05    0.35E-07
   1      8    11.376     4.010    0.13E-03    0.11E-03    0.29E-07
   1      8    11.376     6.182    0.94E-04    0.19E-03    0.11E-06
   2      8    11.376    47.177    0.13E-03    0.88E-03    0.24E-06
   2      8    11.376    42.437    0.13E-03    0.86E-03    0.23E-06
 Optimization of the real space projectors (new method)

 maximal supplied QI-value         = 24.76
 optimisation between [QCUT,QGAM] = [ 11.39, 22.77] = [ 36.31,145.25] Ry
 Optimized for a Real-space Cutoff    1.10 Angstroem

   l    n(q)    QCUT    max X(q) W(low)/X(q) W(high)/X(q)  e(spline)
   0      7    11.387    20.381    0.22E-03    0.48E-03    0.18E-06
   0      7    11.387    15.268    0.22E-03    0.52E-03    0.19E-06
   1      7    11.387     5.964    0.22E-03    0.73E-03    0.24E-06
   1      7    11.387     5.382    0.19E-03    0.60E-03    0.21E-06
  PAW_PBE Ti_sv 26Sep2005               :
  PAW_PBE O 08Apr2002                   :

 POSCAR: Ti  O
  positions in direct lattice
 exchange correlation table for  LEXCH =        8
   RHO(1)=    0.500       N(1)  =     2000
   RHO(2)=  100.500       N(2)  =     4000

 ion  position               nearest neighbor table
   1  0.500  0.125  0.286-  84 1.96 104 1.96 103 1.96  83 1.96  81 2.00  82 2.00
   2  0.750  0.000  0.286-  82 1.96 141 1.96 160 1.96 220 1.96  87 2.00
   3  0.250  0.125  0.393-  88 1.96 108 1.96 166 1.96 186 1.96  86 2.00 164 2.00
   4  0.500  0.000  0.393-  85 1.96  86 1.96 144 1.96 145 1.96  91 2.00  84 2.00
   5  0.500  0.125  0.500-  91 1.96  92 1.96 111 1.96 112 1.96  89 2.00  90 2.00
   6  0.750  0.000  0.500-  90 1.96 149 1.96 168 1.96 228 1.96 167 2.00 174 2.03
   7  0.759  0.125  0.605- 173 1.85 174 1.91 194 1.91 175 2.03 195 2.03  93 2.11
   8  0.506  1.000  0.611-  99 1.87 152 1.92  93 1.92 153 2.04  94 2.04  92 2.14
   9  0.499  0.125  0.721- 100 1.83 120 1.83  97 2.05  98 2.06  99 2.11 119 2.11
  10  0.749  1.000  0.709- 175 1.82  98 1.95 157 1.95 236 1.96 176 1.96
  11  0.500  0.375  0.286- 104 1.96 124 1.96 123 1.96 103 1.96 101 2.00 102 2.00
  12  0.750  0.250  0.286-  82 1.96 102 1.96 160 1.96 180 1.96 107 2.00
  13  0.250  0.375  0.393- 108 1.96 128 1.96 186 1.96 206 1.96 106 2.00 184 2.00
  14  0.500  0.250  0.393-  85 1.96  86 1.96 105 1.96 106 1.96 111 2.00 104 2.00
  15  0.500  0.375  0.500- 111 1.96 112 1.96 131 1.96 132 1.96 109 2.00 110 2.00
  16  0.750  0.250  0.500-  90 1.96 110 1.96 168 1.96 188 1.96 187 2.00 194 2.03
  17  0.759  0.375  0.605- 193 1.85 214 1.91 194 1.91 215 2.03 195 2.03 113 2.11
  18  0.507  0.250  0.611- 119 1.87 113 1.91  93 1.91 114 2.05  94 2.05 112 2.14
  19  0.499  0.375  0.721- 120 1.83 117 2.05 118 2.06 139 2.11 119 2.11
  20  0.749  0.250  0.709- 195 1.82  98 1.95 118 1.95 176 1.96 196 1.96
  21  0.500  0.625  0.286- 124 1.96 143 1.96 142 1.96 123 1.96 121 2.00 122 2.00
  22  0.750  0.500  0.286- 102 1.96 122 1.96 180 1.96 200 1.96 127 2.00
  23  0.250  0.625  0.393- 128 1.96 147 1.96 206 1.96 226 1.96 126 2.00 204 2.00
  24  0.500  0.500  0.393- 105 1.96 106 1.96 125 1.96 126 1.96 131 2.00 124 2.00
  25  0.500  0.625  0.500- 131 1.96 132 1.96 150 1.96 151 1.96 129 2.00 130 2.00
  26  0.750  0.500  0.500- 110 1.96 130 1.96 188 1.96 208 1.96 207 2.00 214 2.03
  27  0.759  0.625  0.605- 213 1.85 214 1.91 234 1.91 215 2.03 235 2.03 133 2.11
  28  0.506  0.500  0.611- 139 1.87 133 1.92 113 1.92 114 2.04 134 2.04 132 2.14
  29  0.499  0.625  0.721- 159 1.83 137 2.05 138 2.06 139 2.11 158 2.11
  30  0.749  0.500  0.709- 215 1.82 138 1.95 118 1.95 196 1.96 216 1.96
  31  0.500  0.875  0.286-  84 1.96 143 1.96 142 1.96  83 1.96 140 2.00 141 2.00
  32  0.750  0.750  0.286- 122 1.96 141 1.96 200 1.96 220 1.96 146 2.00
  33  0.250  0.875  0.393-  88 1.96 147 1.96 166 1.96 226 1.96 224 2.00 145 2.00
  34  0.500  0.750  0.393- 125 1.96 126 1.96 144 1.96 145 1.96 150 2.00 143 2.00
  35  0.500  0.875  0.500-  91 1.96  92 1.96 150 1.96 151 1.96 148 2.00 149 2.00
  36  0.750  0.750  0.500- 130 1.96 149 1.96 208 1.96 228 1.96 227 2.00 234 2.03
  37  0.759  0.875  0.605- 233 1.85 174 1.91 234 1.91 175 2.03 235 2.03 152 2.11
  38  0.507  0.750  0.611- 158 1.87 152 1.91 133 1.91 153 2.05 134 2.05 151 2.14
  39  0.499  0.875  0.721- 100 1.83 159 1.83 156 2.05 157 2.06  99 2.11 158 2.11
  40  0.749  0.750  0.709- 235 1.82 138 1.95 157 1.95 216 1.96 236 1.96
  41  0.000  0.125  0.286- 163 1.96 183 1.96 182 1.96 162 1.96 160 2.00 161 2.00
  42  0.250  0.000  0.286-  81 1.96 140 1.96 161 1.96 221 1.96 166 2.00
  43  0.750  0.125  0.393- 167 1.96 187 1.96  87 1.96 107 1.96  85 2.00 165 2.00
  44  0.000  0.000  0.393- 164 1.96 165 1.96 224 1.96 225 1.96 170 2.00 163 2.00
  45  0.000  0.125  0.500- 170 1.96 171 1.96 190 1.96 191 1.96 168 2.00 169 2.00
  46  0.250  0.000  0.500-  89 1.96 148 1.96 169 1.96 229 1.96  88 2.00  95 2.03
  47  0.259  0.125  0.605-  94 1.85  95 1.91 115 1.91  96 2.03 116 2.03 172 2.11
  48  0.006  0.000  0.611- 178 1.87 172 1.92 232 1.92 173 2.04 233 2.04 171 2.14
  49  0.999  0.125  0.721- 179 1.83 199 1.83 176 2.05 177 2.06 178 2.11 198 2.11
  50  0.249  1.000  0.709-  96 1.82 177 1.95 237 1.95 156 1.96  97 1.96
  51  0.000  0.375  0.286- 183 1.96 203 1.96 202 1.96 182 1.96 180 2.00 181 2.00
  52  0.250  0.250  0.286-  81 1.96 101 1.96 161 1.96 181 1.96 186 2.00
  53  0.750  0.375  0.393- 187 1.96 207 1.96 107 1.96 127 1.96 105 2.00 185 2.00
  54  0.000  0.250  0.393- 164 1.96 165 1.96 184 1.96 185 1.96 190 2.00 183 2.00
  55  0.000  0.375  0.500- 190 1.96 191 1.96 210 1.96 211 1.96 188 2.00 189 2.00
  56  0.250  0.250  0.500-  89 1.96 109 1.96 169 1.96 189 1.96 108 2.00 115 2.03
  57  0.259  0.375  0.605- 114 1.85 135 1.91 115 1.91 136 2.03 116 2.03 192 2.11
  58  0.007  0.250  0.611- 198 1.87 172 1.91 192 1.91 193 2.05 173 2.05 191 2.14
  59  0.999  0.375  0.721- 219 1.83 199 1.83 196 2.05 197 2.06 218 2.11 198 2.11
  60  0.249  0.250  0.709- 116 1.82 197 1.95 177 1.95  97 1.96 117 1.96
[...]
 225  0.902  0.875  0.393-  44 1.96  74 1.96  73 2.00
 226  0.250  0.750  0.351-  23 1.96  33 1.96  72 2.00
 227  0.750  0.750  0.435-  63 1.96  73 1.96  36 2.00
 228  0.848  0.875  0.500-   6 1.96  36 1.96  75 2.00
 229  0.152  0.875  0.500-  46 1.96  76 1.96  75 2.00
 230  0.000  0.750  0.458-  65 1.96  75 1.96  74 2.00
 231  0.000  0.750  0.542-  65 1.96  75 1.96  78 2.14
 232  0.099  0.875  0.608-  78 1.91  48 1.92  77 2.11
 233  0.900  0.875  0.607-  37 1.85  48 2.04  78 2.05
 234  0.750  0.750  0.566-  27 1.91  37 1.91  36 2.03
 235  0.750  0.750  0.650-  40 1.82  27 2.03  37 2.03
 236  0.843  0.875  0.720-  40 1.96  10 1.96  79 2.05
 237  0.156  0.875  0.720-  50 1.95  80 1.95  79 2.06
 238  1.000  0.750  0.672-  78 1.87  79 2.11  69 2.11
 239  0.999  0.750  0.756-  79 1.83  69 1.83

IMPORTANT INFORMATION: All symmetrisations will be switched off!
NOSYMM: (Re-)initialisation of all symmetry stuff for point group C_1.

                                     Primitive cell

  volume of cell :    4788.5376

  direct lattice vectors                    reciprocal lattice vectors
    13.141424057  0.000000000  0.000000000     0.076095254  0.000000000  0.000000000
     0.000000000 11.867583772  0.000000000     0.000000000  0.084263151  0.000000000
     0.000000000  0.000000000 30.704227145     0.000000000  0.000000000  0.032568805

  length of vectors
    13.141424057 11.867583772 30.704227145     0.076095254  0.084263151  0.032568805

  position of ions in fractional coordinates (direct lattice)
     0.500000000  0.125000000  0.285999758
     0.750000000  0.000000000  0.285999758
     0.250000000  0.125000000  0.392999879
     0.500000000  0.000000000  0.392999879
     0.500000000  0.125000000  0.500000000
     0.750000000  0.000000000  0.500000000
     0.759084331  0.124924439  0.604725991
     0.506426550  0.999982833  0.611336131
     0.498883399  0.124905081  0.721076898
     0.748990389  0.999969229  0.708906663
     0.500000000  0.375000000  0.285999758
     0.750000000  0.250000000  0.285999758
     0.250000000  0.375000000  0.392999879
     0.500000000  0.250000000  0.392999879
     0.500000000  0.375000000  0.500000000
     0.750000000  0.250000000  0.500000000
     0.759090441  0.375058840  0.604730954
     0.507462837  0.249990233  0.611456038
     0.498866664  0.375070705  0.721089099
     0.749365623  0.249955658  0.708866106
     0.500000000  0.625000000  0.285999758
     0.750000000  0.500000000  0.285999758
     0.250000000  0.625000000  0.392999879
     0.500000000  0.500000000  0.392999879
     0.500000000  0.625000000  0.500000000
     0.750000000  0.500000000  0.500000000
     0.759099632  0.624936674  0.604730241
     0.506444581  0.499983446  0.611326756
     0.498795907  0.624907292  0.721078854
     0.748970122  0.499964115  0.708909089
     0.500000000  0.875000000  0.285999758
     0.750000000  0.750000000  0.285999758
     0.250000000  0.875000000  0.392999879
[...]
   -.120E+00 -.170E-02 0.245E+04   0.120E+00 0.166E-02 -.245E+04   0.610E-03 0.696E-05 0.382E+00   -.295E-03 0.727E-04 0.243E-03
   -.196E+01 0.113E+01 -.495E+02   0.199E+01 -.111E+01 0.502E+02   -.616E-02 0.646E-03 -.196E+00   -.275E-03 0.724E-04 -.151E-02
   0.596E+01 -.215E-01 -.304E+02   -.600E+01 0.212E-01 0.288E+02   0.183E-01 0.165E-03 0.669E+00   0.263E-03 0.570E-04 -.747E-03
   0.506E+02 0.436E+01 -.246E+04   -.494E+02 -.429E+01 0.246E+04   -.117E+01 -.402E-01 0.101E+01   0.723E-03 0.413E-03 -.208E-02
   0.126E+02 -.810E-01 -.258E+04   -.118E+02 0.812E-01 0.258E+04   -.846E+00 -.509E-03 -.952E+00   -.115E-02 0.444E-04 -.179E-02
   -.245E+01 0.249E+03 -.507E+04   0.234E+01 -.245E+03 0.507E+04   0.102E+00 -.268E+01 0.207E+01   -.863E-05 0.169E-03 0.779E-03
   0.681E+02 0.243E-01 -.492E+04   -.675E+02 -.289E-01 0.492E+04   -.227E+00 0.312E-02 0.293E+01   0.397E-03 -.177E-04 0.228E-03
   -.611E-02 0.415E-01 0.488E+04   0.522E-02 -.431E-01 -.488E+04   0.473E-03 -.150E-01 0.107E+01   -.180E-03 0.976E-04 -.218E-03
   0.125E+00 0.550E-01 0.509E+04   -.124E+00 -.552E-01 -.508E+04   -.678E-04 0.334E-04 -.557E+01   -.377E-05 -.287E-04 -.231E-03
   -.264E+00 0.166E+00 0.246E+04   0.260E+00 -.167E+00 -.246E+04   0.152E-02 -.566E-02 -.135E+00   -.724E-04 0.573E-05 -.288E-03
   -.120E+00 0.272E+00 0.245E+04   0.119E+00 -.275E+00 -.245E+04   0.476E-03 0.593E-03 0.392E+00   -.348E-03 -.824E-06 0.196E-03
   -.197E+01 0.136E+01 -.468E+02   0.199E+01 -.138E+01 0.475E+02   -.573E-02 -.569E-02 -.205E+00   -.269E-03 0.701E-04 -.135E-02
   0.541E+01 0.128E+01 -.293E+02   -.545E+01 -.128E+01 0.278E+02   0.188E-01 -.274E-03 0.661E+00   0.252E-03 0.643E-04 -.575E-03
   0.452E+02 0.490E+01 -.245E+04   -.441E+02 -.489E+01 0.245E+04   -.116E+01 0.159E-01 0.983E+00   0.592E-03 0.329E-03 -.160E-02
   0.144E+02 0.137E+02 -.256E+04   -.136E+02 -.137E+02 0.256E+04   -.841E+00 0.262E-01 -.972E+00   -.114E-02 0.510E-03 -.113E-02
   -.813E+00 0.322E+02 -.490E+04   0.743E+00 -.318E+02 0.490E+04   0.695E-01 -.360E-01 -.152E+01   -.221E-03 0.737E-03 -.321E-03
   0.302E+02 0.236E+02 -.491E+04   -.298E+02 -.233E+02 0.490E+04   -.105E+00 -.131E+00 0.275E+01   0.524E-03 0.727E-03 0.349E-03
   -.444E-02 -.344E-01 0.488E+04   0.531E-02 0.353E-01 -.489E+04   -.424E-03 0.152E-01 0.107E+01   0.154E-03 -.397E-04 -.257E-03
   -.109E+00 0.109E-03 0.509E+04   0.109E+00 -.172E-03 -.508E+04   0.165E-03 0.707E-04 -.561E+01   0.422E-05 -.294E-04 -.184E-04
   0.508E+00 -.164E+00 0.246E+04   -.505E+00 0.165E+00 -.246E+04   -.602E-03 0.583E-02 -.135E+00   0.111E-03 -.718E-04 0.636E-04
   -.119E+00 0.656E-03 0.245E+04   0.120E+00 -.659E-03 -.246E+04   -.247E-03 -.445E-05 0.377E+00   0.286E-03 0.826E-05 0.336E-03
   -.196E+01 -.751E+00 -.437E+02   0.198E+01 0.766E+00 0.445E+02   -.600E-02 0.336E-02 -.219E+00   0.209E-03 -.623E-04 -.137E-02
   0.204E+01 -.433E-02 -.278E+02   -.210E+01 0.318E-02 0.263E+02   0.268E-01 0.574E-03 0.665E+00   -.217E-04 -.157E-04 -.163E-03
   0.328E+02 -.513E+01 -.245E+04   -.318E+02 0.512E+01 0.245E+04   -.111E+01 -.167E-01 0.984E+00   0.370E-03 -.171E-03 -.149E-02
   0.115E+02 0.190E-01 -.254E+04   -.107E+02 -.184E-01 0.254E+04   -.856E+00 -.924E-03 -.117E+01   0.201E-03 0.749E-04 -.887E-03
   -.779E+00 -.518E+01 -.489E+04   0.730E+00 0.521E+01 0.489E+04   0.664E-01 -.323E-01 -.158E+01   -.142E-03 -.392E-03 0.386E-03
   -.107E+02 0.134E-01 -.490E+04   0.105E+02 -.133E-01 0.490E+04   0.924E-01 0.417E-03 0.277E+01   -.479E-03 -.485E-04 -.404E-03
   -.446E-02 -.363E-01 0.488E+04   0.532E-02 0.353E-01 -.488E+04   -.426E-03 -.152E-01 0.107E+01   0.157E-03 0.100E-03 -.254E-03
   -.114E+00 -.550E-01 0.509E+04   0.113E+00 0.552E-01 -.508E+04   0.222E-03 0.102E-04 -.557E+01   -.675E-05 -.126E-04 0.746E-04
   0.562E+00 -.160E+00 0.246E+04   -.561E+00 0.160E+00 -.246E+04   -.325E-03 -.604E-02 -.135E+00   0.108E-03 -.172E-03 0.214E-03
   -.117E+00 -.187E+00 0.245E+04   0.119E+00 0.188E+00 -.246E+04   -.172E-03 -.176E-03 0.389E+00   0.325E-03 -.272E-04 0.301E-03
   -.196E+01 -.468E+00 -.447E+02   0.198E+01 0.448E+00 0.455E+02   -.600E-02 -.249E-02 -.217E+00   0.235E-03 -.116E-04 -.152E-02
   0.148E+01 -.129E+01 -.293E+02   -.154E+01 0.129E+01 0.278E+02   0.260E-01 0.888E-04 0.662E+00   -.240E-04 -.278E-04 -.218E-03
   0.269E+02 -.468E+01 -.246E+04   -.260E+02 0.461E+01 0.246E+04   -.110E+01 0.393E-01 0.101E+01   0.330E-03 -.317E-03 -.208E-02
   0.133E+02 -.333E+01 -.254E+04   -.125E+02 0.331E+01 0.254E+04   -.849E+00 0.621E-02 -.116E+01   0.377E-03 -.203E-03 -.940E-03
   -.661E+00 -.494E+01 -.489E+04   0.616E+00 0.490E+01 0.489E+04   0.556E-01 0.326E-01 -.158E+01   -.148E-03 -.747E-05 -.155E-04
   -.267E+02 -.237E+02 -.491E+04   0.263E+02 0.234E+02 0.490E+04   0.190E+00 0.129E+00 0.275E+01   -.562E-03 -.740E-03 -.526E-03
[...]
   -.994E-01 0.602E-01 0.179E+04   0.982E-01 -.605E-01 -.179E+04   0.137E-02 0.595E-03 0.176E+01   -.394E-05 -.441E-05 -.126E-03
   0.596E+00 0.224E+00 0.678E+03   -.588E+00 -.225E+00 -.674E+03   -.727E-02 0.807E-03 -.458E+01   0.171E-04 0.113E-04 -.244E-03
   -.697E+02 0.463E+00 -.130E+02   0.747E+02 -.466E+00 0.126E+02   -.546E+01 -.494E-02 0.554E+00   -.190E-04 0.170E-04 -.331E-03
   0.699E+02 0.387E+00 -.164E+02   -.749E+02 -.389E+00 0.161E+02   0.543E+01 -.516E-02 0.429E+00   -.839E-06 0.571E-05 -.303E-03
   -.350E+00 0.241E+00 0.533E+03   0.363E+00 -.241E+00 -.538E+03   -.197E-01 -.109E-02 0.461E+01   0.211E-04 0.474E-05 -.221E-03
   0.171E+01 0.749E+00 -.597E+03   -.203E+01 -.746E+00 0.604E+03   0.333E+00 -.474E-02 -.730E+01   0.193E-04 0.221E-04 -.249E-03
   -.873E+02 -.543E+00 -.124E+04   0.949E+02 0.755E+00 0.124E+04   -.763E+01 -.221E+00 0.142E+01   -.904E-04 0.106E-04 -.292E-03
   -.870E+01 0.349E+01 -.124E+04   0.102E+02 -.368E+01 0.124E+04   -.142E+01 0.185E+00 0.880E+00   0.675E-04 0.372E-04 -.297E-03
   0.254E+02 0.181E+01 -.691E+03   -.272E+02 -.180E+01 0.685E+03   0.180E+01 -.287E-01 0.679E+01   0.880E-04 -.200E-04 -.348E-03
   0.221E+02 0.624E+01 -.175E+04   -.233E+02 -.618E+01 0.174E+04   0.112E+01 -.752E-01 0.320E+01   0.157E-03 0.964E-04 -.321E-03
   -.264E+02 0.359E+01 -.255E+04   0.322E+02 -.350E+01 0.256E+04   -.595E+01 -.138E+00 -.416E+01   0.150E-03 0.944E-04 -.123E-04
   0.312E+02 0.470E+01 -.255E+04   -.376E+02 -.472E+01 0.256E+04   0.646E+01 -.301E-01 -.414E+01   -.130E-03 0.901E-04 -.458E-04
   0.755E+01 0.289E+01 -.197E+04   -.815E+01 -.289E+01 0.198E+04   0.593E+00 -.543E-02 -.207E+01   0.962E-05 0.677E-04 -.170E-03
   -.214E+01 0.373E+01 -.296E+04   0.230E+01 -.372E+01 0.298E+04   -.162E+00 -.195E-01 -.207E+02   -.620E-05 0.120E-03 0.319E-05
   0.529E+02 -.827E-02 0.415E+02   -.561E-11 -.732E-12 -.196E-10   -.529E+02 0.727E-02 -.417E+02   0.101E-02 0.156E-04 -.655E-01

 POSITION                                       TOTAL-FORCE (eV/Angst)
      6.57071      1.48345      8.78140        -0.000688      0.016521     -3.420554
      9.85607      0.00000      8.78140         0.000530      0.000080      2.819126
      3.28536      1.48345     12.06676        -0.003275      0.007217      0.413312
      6.57071      0.00000     12.06676         0.000202     -0.000006     -0.807322
      6.57071      1.48345     15.35211         0.020355      0.026567      0.528019
      9.85607      0.00000     15.35211        -0.022138     -0.000427     -0.847601
      9.97545      1.48255     18.56764         0.000753     -0.026039     -0.148891
      6.65517     11.86738     18.77060        -0.066034     -0.000458     -0.370928
      6.55604      1.48232     22.14011         0.003496     -0.314219     -0.221683
      9.84280     11.86722     21.76643         0.093561     -0.001520     -0.144612
      6.57071      4.45034      8.78140        -0.000644     -0.015288     -3.419584
      9.85607      2.96690      8.78140         0.000516      0.000176      2.855825
      3.28536      4.45034     12.06676        -0.002718     -0.006337      0.413411
      6.57071      2.96690     12.06676        -0.000080      0.001813     -0.793554
      6.57071      4.45034     15.35211         0.021177     -0.022273      0.528796
      9.85607      2.96690     15.35211        -0.021956      0.001125     -0.841525
      9.97553      4.45104     18.56780         0.013725     -0.032849     -0.189802
      6.66878      2.96678     18.77429        -0.047410      0.012548     -0.638404
      6.55582      4.45118     22.14048        -0.008965     -1.156264     -1.621821
      9.84773      2.96637     21.76519         0.298065     -0.207025     -0.191404
      6.57071      7.41724      8.78140        -0.000665      0.015304     -3.419554
      9.85607      5.93379      8.78140         0.000349     -0.000025      2.819544
      3.28536      7.41724     12.06676        -0.002773      0.006414      0.413456
      6.57071      5.93379     12.06676         0.000333      0.000039     -0.800548
      6.57071      7.41724     15.35211         0.020924      0.022657      0.529123
      9.85607      5.93379     15.35211        -0.023288     -0.000060     -0.854768
      9.97565      7.41649     18.56777         0.011393      0.032027     -0.188383
      6.65540      5.93360     18.77032        -0.061680     -0.000250     -0.580723
      6.55489      7.41614     22.14017        -0.012903      1.157959     -1.618456
      9.84253      5.93337     21.76651         0.317825     -0.001433     -0.323583
      6.57071     10.38414      8.78140        -0.000699     -0.016530     -3.420557
      9.85607      8.90069      8.78140         0.000644     -0.000221      2.855974
      3.28536     10.38414     12.06676        -0.003213     -0.007284      0.413343
      6.57071      8.90069     12.06676        -0.000103     -0.001782     -0.793447
      6.57071     10.38414     15.35211         0.020198     -0.026942      0.528184
      9.85607      8.90069     15.35211        -0.021753     -0.000774     -0.841408
      9.97562     10.38471     18.56795        -0.002507      0.028649     -0.150749
      6.66862      8.90055     18.77435        -0.044671     -0.012985     -0.639398
      6.55502     10.38497     22.14037        -0.001002      0.312525     -0.220297
      9.84586      8.90016     21.76569         0.301934      0.211928     -0.193872
      0.00000      1.48345      8.78140         0.000499      0.016073     -3.419455
      3.28536      0.00000      8.78140        -0.000606     -0.000018      2.818831
      9.85607      1.48345     12.06676         0.001826      0.007194      0.413353
      0.00000      0.00000     12.06676         0.001338      0.000004     -0.796435
      0.00000      1.48345     15.35211         0.021322      0.018879      0.562013
      3.28536      0.00000     15.35211        -0.040740     -0.000588     -0.852702
      3.40475      1.48259     18.56749        -0.132296     -0.031080     -0.140128
      0.08434      0.00001     18.77064        -0.043055     -0.000194     -0.213900
     13.12674      1.48219     22.14037         0.016632     -0.005796     -0.102402
      3.27172     11.86724     21.76644        -0.084219      0.000471     -0.147168
      0.00000      4.45034      8.78140         0.000492     -0.016080     -3.419340
      3.28536      2.96690      8.78140        -0.000594      0.000240      2.855573
      9.85607      4.45034     12.06676         0.001402     -0.005941      0.413464
      0.00000      2.96690     12.06676         0.001342      0.000349     -0.785706
      0.00000      4.45034     15.35211         0.021262     -0.022123      0.559534
      3.28536      2.96690     15.35211        -0.040139      0.000913     -0.844925
      3.40498      4.45111     18.56776        -0.139233     -0.029981     -0.190548
      0.09796      2.96687     18.77428        -0.045274     -0.016152     -0.209736
     13.12656      4.45087     22.14053         0.010266     -0.011798     -0.102148
      3.27751      2.96653     21.76507        -0.294181     -0.203968     -0.188618
[...]
     11.86002     10.38414     12.06676        -0.396607     -0.007375      0.067125
      3.28536      8.90069     10.78536         0.000067      0.000305     -1.235870
      9.85607      8.90069     13.34816        -0.000174      0.000196     -0.006123
     11.13747     10.38414     15.35211        -0.449548     -0.007902      0.133483
      2.00395     10.38414     15.35211         0.447977     -0.007204      0.124123
      0.00000      8.90069     14.07071        -0.006703     -0.000688     -0.025549
      0.00000      8.90069     16.63352         0.007887     -0.001621      0.058055
      1.29808     10.38568     18.66286         0.028590     -0.008748      0.035648
     11.82703     10.38324     18.65124         0.069082     -0.003952      0.041684
      9.85359      8.90060     17.37802        -0.003357     -0.016792      0.077661
      9.85155      8.90040     19.94629        -0.023980     -0.020327      0.247086
     11.07865     10.38351     22.10215        -0.089477     -0.050663      0.012804
      2.04897     10.38350     22.09894         0.081864     -0.052217      0.017655
     13.14029      8.90044     20.64080        -0.006496     -0.006181      0.160837
     13.13443      8.90034     23.21433        -0.001047     -0.012179      0.025589
    total drift:                                0.024021     -0.000985     -0.336777

  FREE ENERGIE OF THE ION-ELECTRON SYSTEM (eV)
  free  energy   TOTEN  =     -2119.10087425 eV

  energy  without entropy=    -2119.06753471  energy(sigma->0) =    -2119.08420448

 total charge

# of ion       s       p       d       tot
    1        2.213   6.284   1.734  10.230
    2        2.197   6.236   1.717  10.150
    3        2.216   6.284   1.692  10.191
    4        2.216   6.286   1.694  10.196
    5        2.215   6.286   1.697  10.198
    6        2.213   6.281   1.693  10.187
    7        2.224   6.291   1.751  10.265
    8        2.218   6.279   1.719  10.217
    9        2.215   6.273   1.759  10.247
   10        2.226   6.270   1.794  10.290
   11        2.213   6.284   1.734  10.230
   12        2.197   6.236   1.717  10.150
   13        2.216   6.284   1.692  10.191
   14        2.216   6.286   1.694  10.197
   15        2.215   6.286   1.698  10.199
   16        2.213   6.281   1.693  10.187
   17        2.224   6.291   1.751  10.265
   18        2.218   6.278   1.727  10.223
   19        2.187   6.204   1.755  10.146
   20        2.227   6.269   1.797  10.293
   21        2.213   6.284   1.734  10.230
   22        2.197   6.236   1.717  10.150
   23        2.216   6.284   1.692  10.191
   24        2.216   6.286   1.694  10.196
   25        2.215   6.286   1.698  10.199
   26        2.213   6.281   1.693  10.187
   27        2.224   6.291   1.751  10.265
   28        2.218   6.279   1.720  10.216
   29        2.187   6.204   1.755  10.146
   30        2.226   6.270   1.800  10.296
   31        2.213   6.284   1.734  10.230
   32        2.197   6.236   1.717  10.150
   33        2.216   6.284   1.692  10.191
   34        2.216   6.286   1.694  10.197
   35        2.215   6.286   1.697  10.198
   36        2.213   6.281   1.693  10.187
   37        2.224   6.291   1.751  10.265
   38        2.218   6.278   1.727  10.224
   39        2.215   6.273   1.759  10.248
   40        2.227   6.269   1.797  10.292
   41        2.213   6.284   1.734  10.230
   42        2.197   6.236   1.717  10.150
   43        2.216   6.284   1.691  10.191
   44        2.216   6.286   1.694  10.196
   45        2.215   6.286   1.697  10.198
   46        2.213   6.281   1.693  10.187
   47        2.224   6.291   1.750  10.265
   48        2.218   6.279   1.720  10.218
   49        2.215   6.273   1.765  10.253
   50        2.226   6.270   1.794  10.290
   51        2.213   6.284   1.734  10.230
   52        2.197   6.236   1.717  10.150
   53        2.216   6.284   1.691  10.191
   54        2.216   6.286   1.694  10.197
   55        2.215   6.286   1.697  10.198
   56        2.213   6.281   1.693  10.187
   57        2.224   6.291   1.750  10.265
   58        2.219   6.279   1.725  10.222
   59        2.215   6.273   1.765  10.254
   60        2.227   6.269   1.797  10.293
[...]
  225        1.573   3.490   0.000   5.063
  226        1.572   3.479   0.000   5.051
  227        1.573   3.486   0.000   5.059
  228        1.574   3.488   0.000   5.062
  229        1.574   3.488   0.000   5.061
  230        1.573   3.491   0.000   5.065
  231        1.572   3.465   0.000   5.037
  232        1.575   3.491   0.000   5.065
  233        1.574   3.487   0.000   5.061
  234        1.576   3.508   0.000   5.084
  235        1.574   3.506   0.000   5.080
  236        1.571   3.480   0.000   5.051
  237        1.571   3.479   0.000   5.050
  238        1.571   3.466   0.000   5.037
  239        1.591   3.436   0.000   5.028
tot        427.5281054.871 138.0651620.464