 vasp.6.2.0 18Jan21 (build Mar 03 2021 13:27:41) complex

 executed on             LinuxIFC date 2021.07.15  03:52:50

 INCAR:
   SYSTEM = TiO2-rutile
   ISMEAR = 0
   SIGMA = 0.05
   EDIFF = 1E-5
   ALGO = Fast
   ISTART = 1
   GGA = PS
   ISYM = 0
   IBRION = -1
   NSW = 0
   EDIFFG = -0.01
   ISIF = 0
   ENCUT = 500
   PREC = Accurate
   LASPH = .TRUE.
   LREAL = Auto
   ISPIN = 1
   NELM = 500
   NELMIN = 4
   NCORE = 20
   LWAVE = .FALSE.
   LCHARG = .FALSE.
   LORBIT = 11

 POTCAR:    PAW_PBE Ti_sv 26Sep2005
 POTCAR:    PAW_PBE O 08Apr2002
 POTCAR:    PAW_PBE Ti_sv 26Sep2005
   VRHFIN =Ti: 3p4s3d

   TITEL  = PAW_PBE Ti_sv 26Sep2005
   POMASS =   47.880; ZVAL   =   12.000    mass and valenz
   ENMAX  =  274.610; ENMIN  =  205.957 eV

   TITEL  = PAW_PBE O 08Apr2002
   POMASS =   16.000; ZVAL   =    6.000    mass and valenz
   ENMAX  =  400.000; ENMIN  =  300.000 eV

 Optimization of the real space projectors (new method)

 maximal supplied QI-value         = 16.25
 optimisation between [QCUT,QGAM] = [ 11.38, 22.75] = [ 36.24,144.96] Ry
 Optimized for a Real-space Cutoff    1.27 Angstroem

   l    n(q)    QCUT    max X(q) W(low)/X(q) W(high)/X(q)  e(spline)
   0      9    11.376    12.277    0.53E-04    0.25E-04    0.25E-07
   0      9    11.376    11.419    0.89E-04    0.67E-05    0.35E-07
   1      8    11.376     4.010    0.13E-03    0.11E-03    0.29E-07
   1      8    11.376     6.182    0.94E-04    0.19E-03    0.11E-06
   2      8    11.376    47.177    0.13E-03    0.88E-03    0.24E-06
   2      8    11.376    42.437    0.13E-03    0.86E-03    0.23E-06
 Optimization of the real space projectors (new method)

 maximal supplied QI-value         = 24.76
 optimisation between [QCUT,QGAM] = [ 11.39, 22.77] = [ 36.31,145.25] Ry
 Optimized for a Real-space Cutoff    1.10 Angstroem

   l    n(q)    QCUT    max X(q) W(low)/X(q) W(high)/X(q)  e(spline)
   0      7    11.387    20.381    0.22E-03    0.48E-03    0.18E-06
   0      7    11.387    15.268    0.22E-03    0.52E-03    0.19E-06
   1      7    11.387     5.964    0.22E-03    0.73E-03    0.24E-06
   1      7    11.387     5.382    0.19E-03    0.60E-03    0.21E-06
|               ----> ADVICE to this user running VASP <----                  |
|     You enforced a specific xc type in the INCAR file but a different       |
|     type was found in the POTCAR file.                                      |
|     I HOPE YOU KNOW WHAT YOU ARE DOING!                                     |

  PAW_PBE Ti_sv 26Sep2005               :
  PAW_PBE O 08Apr2002                   :

 POSCAR: Ti  O
  positions in direct lattice
  velocities in cartesian coordinates
 exchange correlation table for  LEXCH =       14
   RHO(1)=    0.500       N(1)  =     2000
   RHO(2)=  100.500       N(2)  =     4000

 ion  position               nearest neighbor table
   1  0.249  0.125  0.109-  68 1.95  83 1.95  67 1.95  84 1.95  65 1.96  66 1.99
   2  1.000  1.000  0.109- 113 1.95 177 1.95  65 1.95 130 1.95  80 1.98  71 1.98
   3  1.000  0.125  0.359-  71 1.94  87 1.94  72 1.94  88 1.95 133 1.98  70 1.98
   4  0.250  1.000  0.359- 117 1.95  69 1.95 118 1.95  70 1.95  75 1.98  68 1.98
   5  0.250  0.125  0.609-  76 1.94  75 1.95  91 1.95  92 1.95  73 1.97  74 1.99
   6  1.000  0.000  0.609-  73 1.95 138 1.95 185 1.95 121 1.95  79 1.97  72 1.98
   7  0.000  0.125  0.859-  96 1.94  80 1.95  95 1.95  79 1.95  78 1.98 141 1.98
   8  0.250  0.000  0.859-  78 1.94 126 1.94  77 1.95 125 1.95  67 1.97  76 1.98
   9  0.250  0.375  0.110-  99 1.94 100 1.94  83 1.95  84 1.95  81 1.97  82 1.99
  10  1.000  0.250  0.109-  81 1.94 146 1.94  65 1.95 130 1.95  87 1.98  96 1.98
  11  1.000  0.375  0.359- 103 1.94 104 1.94  88 1.94  87 1.94 149 1.99  86 1.99
  12  0.250  0.250  0.360-  70 1.93  86 1.93  69 1.95  91 1.97  84 1.98  85 1.99
  13  0.249  0.375  0.609-  92 1.94 107 1.94  91 1.94 108 1.95  89 1.97  90 2.01
  14  0.000  0.250  0.609-  73 1.94 138 1.94  89 1.95 154 1.95  95 1.97  88 1.98
  15  0.000  0.375  0.859- 111 1.94  95 1.95 112 1.95  96 1.95  94 1.98 157 1.98
  16  0.250  0.250  0.859-  78 1.94  94 1.94  77 1.95  93 1.96  83 1.98  92 1.98
  17  0.250  0.625  0.110-  99 1.94 100 1.94 115 1.95 116 1.95  97 1.97  98 1.99
  18  0.000  0.500  0.109-  81 1.95  97 1.95 162 1.95 146 1.95 112 1.97 103 1.98
  19  0.000  0.625  0.359- 103 1.94 104 1.94 120 1.94 119 1.94 102 1.99 165 1.99
  20  0.251  0.500  0.359-  86 1.95 102 1.95  85 1.95 101 1.95 107 1.97 100 1.97
  21  0.249  0.625  0.609- 124 1.94 107 1.94 123 1.94 108 1.95 105 1.97 106 2.01
  22  0.000  0.500  0.609- 105 1.95 169 1.95  89 1.95 154 1.95 111 1.97 104 1.98
  23  0.000  0.625  0.859- 111 1.94 127 1.95 112 1.95 128 1.95 110 1.98 172 1.98
  24  0.250  0.500  0.859-  94 1.94 110 1.94 109 1.95  93 1.95 108 1.98  99 1.98
  25  0.249  0.875  0.109-  68 1.95 115 1.95  67 1.95 116 1.95 113 1.97 114 1.99
  26  0.000  0.750  0.109-  97 1.94 162 1.94 113 1.95 177 1.95 119 1.98 128 1.98
  27  1.000  0.875  0.359-  71 1.94 119 1.94  72 1.94 120 1.95 180 1.98 118 1.98
  28  0.250  0.750  0.360- 118 1.93 102 1.93 117 1.95 123 1.97 116 1.98 101 1.99
  29  0.250  0.875  0.609-  76 1.94  75 1.95 123 1.95 124 1.95 121 1.97 122 1.99
  30  0.000  0.750  0.609- 121 1.94 185 1.94 105 1.95 169 1.95 127 1.97 120 1.98
  31  0.000  0.875  0.859- 128 1.94  80 1.95 127 1.95  79 1.95 126 1.98 188 1.98
  32  0.250  0.750  0.859- 126 1.94 110 1.94 125 1.95 109 1.96 115 1.98 124 1.98
  33  0.751  0.125  0.109- 132 1.95 147 1.95 131 1.95 148 1.95 130 1.96 129 1.99
  34  0.500  0.000  0.107-  66 1.94 129 1.94 114 1.94 176 1.94 144 1.98 135 1.99
  35  0.500  0.119  0.361- 136 1.89 135 1.93 152 1.96  69 1.97 134 1.97 151 1.99  59 2.81  43 2.83

  36  0.750  0.000  0.359- 134 1.95 181 1.95 133 1.95 180 1.95 139 1.98 132 1.98
  37  0.750  0.125  0.609- 140 1.94 139 1.95 155 1.95 156 1.95 138 1.97 137 1.99
  38  0.500  0.000  0.610- 143 1.93  74 1.95 137 1.95 122 1.95 184 1.95 136 1.97
  39  0.500  0.123  0.855- 143 1.92 144 1.94 142 1.97 159 1.97  77 1.97 160 1.97  63 2.90  47 2.91

[...]

  64  0.750  0.750  0.859- 188 1.94 172 1.94 189 1.95 173 1.96 178 1.98 187 1.98
  65  0.098  0.125  0.109-   2 1.95  10 1.95   1 1.96
  66  0.402  0.125  0.107-  42 1.93  34 1.94   1 1.99
  67  0.250  1.000  0.011-  25 1.95   1 1.95   8 1.97
  68  0.250  1.000  0.207-  25 1.95   1 1.95   4 1.98
  69  0.349  0.125  0.360-   4 1.95  12 1.95  35 1.97
  70  0.153  0.126  0.359-  12 1.93   4 1.95   3 1.98
  71  1.000  1.000  0.262-   3 1.94  27 1.94   2 1.98
  72  1.000  1.000  0.457-  27 1.94   3 1.94   6 1.98
  73  0.098  0.125  0.609-  14 1.94   6 1.95   5 1.97
  74  0.403  0.126  0.607-  46 1.94  38 1.95   5 1.99
  75  0.250  1.000  0.511-  29 1.95   5 1.95   4 1.98
  76  0.251  1.000  0.707-  29 1.94   5 1.94   8 1.98
  77  0.349  0.125  0.858-  16 1.95   8 1.95  39 1.97
  78  0.152  0.125  0.859-  16 1.94   8 1.94   7 1.98
  79  1.000  1.000  0.761-  31 1.95   7 1.95   6 1.97
  80  1.000  1.000  0.957-  31 1.95   7 1.95   2 1.98
  81  0.098  0.375  0.110-  10 1.94  18 1.95   9 1.97
  82  0.403  0.375  0.111-  50 1.94  42 1.96   9 1.99
  83  0.250  0.250  0.011-   9 1.95   1 1.95  16 1.98
  84  0.251  0.250  0.208-   9 1.95   1 1.95  12 1.98
  85  0.352  0.376  0.361-  20 1.95  43 1.96  12 1.99
  86  0.153  0.375  0.359-  12 1.93  20 1.95  11 1.99
  87  1.000  0.250  0.261-   3 1.94  11 1.94  10 1.98
  88  1.000  0.250  0.457-  11 1.94   3 1.95  14 1.98
  89  0.098  0.375  0.609-  22 1.95  14 1.95  13 1.97
  90  0.404  0.380  0.603-  54 1.92  46 1.97  13 2.01
  91  0.250  0.250  0.511-  13 1.94   5 1.95  12 1.97
  92  0.252  0.251  0.707-  13 1.94   5 1.95  16 1.98
  93  0.349  0.375  0.860-  24 1.95  16 1.96  47 1.96
  94  0.152  0.375  0.859-  16 1.94  24 1.94  15 1.98
  95  1.000  0.250  0.761-  15 1.95   7 1.95  14 1.97
  96  1.000  0.250  0.957-   7 1.94  15 1.95  10 1.98
  97  0.098  0.625  0.110-  26 1.94  18 1.95  17 1.97
  98  0.403  0.625  0.111-  50 1.94  58 1.96  17 1.99
  99  0.251  0.500  0.012-   9 1.94  17 1.94  24 1.98
 100  0.251  0.500  0.208-   9 1.94  17 1.94  20 1.97
 101  0.352  0.624  0.361-  20 1.95  51 1.96  28 1.99
 102  0.153  0.625  0.359-  28 1.93  20 1.95  19 1.99
 103  1.000  0.500  0.261-  11 1.94  19 1.94  18 1.98
 104  1.000  0.500  0.457-  11 1.94  19 1.94  22 1.98
 105  0.098  0.625  0.609-  22 1.95  30 1.95  21 1.97
 106  0.404  0.620  0.603-  54 1.92  62 1.97  21 2.01
 107  0.248  0.500  0.511-  13 1.94  21 1.94  20 1.97
 108  0.252  0.500  0.707-  13 1.95  21 1.95  24 1.98
 109  0.349  0.625  0.860-  24 1.95  32 1.96  55 1.96
 110  0.152  0.625  0.859-  32 1.94  24 1.94  23 1.98
 111  1.000  0.500  0.761-  15 1.94  23 1.94  22 1.97
 112  1.000  0.500  0.957-  15 1.95  23 1.95  18 1.97
 113  0.098  0.875  0.109-   2 1.95  26 1.95  25 1.97
 114  0.402  0.875  0.107-  58 1.93  34 1.94  25 1.99
 115  0.250  0.750  0.011-  17 1.95  25 1.95  32 1.98
 116  0.251  0.750  0.208-  17 1.95  25 1.95  28 1.98
 117  0.349  0.875  0.360-   4 1.95  28 1.95  59 1.97
 118  0.153  0.874  0.359-  28 1.93   4 1.95  27 1.98
 119  1.000  0.750  0.261-  27 1.94  19 1.94  26 1.98
 120  1.000  0.750  0.457-  19 1.94  27 1.95  30 1.98
 121  0.098  0.875  0.609-  30 1.94   6 1.95  29 1.97
 122  0.403  0.874  0.607-  62 1.94  38 1.95  29 1.99
 123  0.250  0.750  0.511-  21 1.94  29 1.95  28 1.97
[...]
 177  0.902  0.875  0.109-   2 1.95  26 1.95  57 1.97
 178  0.750  0.750  0.011-  49 1.95  57 1.95  64 1.98
 179  0.749  0.750  0.208-  49 1.95  57 1.95  60 1.98
 180  0.847  0.874  0.359-  60 1.93  36 1.95  27 1.98
 181  0.651  0.875  0.360-  36 1.95  60 1.95  59 1.97
 182  0.500  0.758  0.256-  51 1.77  59 1.99  58 2.00
 183  0.500  0.748  0.453-  51 1.92  59 1.96  62 1.96
 184  0.597  0.874  0.607-  62 1.94  38 1.95  61 1.99
 185  0.902  0.875  0.609-  30 1.94   6 1.95  61 1.97
 186  0.750  0.750  0.511-  53 1.94  61 1.95  60 1.97
 187  0.748  0.749  0.707-  53 1.94  61 1.95  64 1.98
 188  0.848  0.875  0.859-  64 1.94  40 1.94  31 1.98
 189  0.651  0.875  0.858-  64 1.95  40 1.95  63 1.97
 190  0.500  0.747  0.759-  55 1.93  63 1.97  62 2.01
 191  0.500  0.752  0.956-  55 1.88  58 1.90  63 1.97

IMPORTANT INFORMATION: All symmetrisations will be switched off!
NOSYMM: (Re-)initialisation of all symmetry stuff for point group C_1.

                                     Primitive cell

  volume of cell :    1987.5462

  direct lattice vectors                    reciprocal lattice vectors
    12.995699245  0.000000000  0.000000000     0.076948534  0.000000000  0.000000000
     0.000000000 11.768413717  0.000000000     0.000000000  0.084973219  0.000000000
     0.000000000  0.000000000 12.995699245     0.000000000  0.000000000  0.076948534

  length of vectors
    12.995699245 11.768413717 12.995699245     0.076948534  0.084973219  0.076948534

  position of ions in fractional coordinates (direct lattice)
     0.249257252  0.125010628  0.109188652
     0.999999785  0.999998431  0.109244152
     0.999999603  0.125022682  0.359377789
     0.250143332  0.999998561  0.359216736
     0.249910611  0.124981329  0.609248476
     0.999999623  0.000000277  0.609434382
     0.000000910  0.125008439  0.859249357
     0.250128456  0.000008128  0.859439103
[...]
   -.337E+01 0.137E-01 0.178E+02   0.337E+01 -.145E-01 -.178E+02   0.800E-02 0.417E-03 -.101E-01   -.566E-03 0.279E-05 -.850E-04
   0.294E+01 0.722E+01 -.948E+01   -.301E+01 -.723E+01 0.947E+01   0.672E-01 0.171E-01 0.653E-02   -.678E-03 -.215E-03 -.323E-03
   0.364E-02 0.366E+01 -.494E+01   -.391E-02 -.370E+01 0.494E+01   -.727E-04 0.469E-01 0.602E-03   -.121E-03 0.173E-04 -.699E-04
   -.199E-02 0.494E+01 -.538E+01   0.189E-02 -.501E+01 0.536E+01   0.326E-03 0.658E-01 0.124E-01   -.758E-04 -.758E-04 0.129E-03
   -.316E+02 0.439E+02 -.146E+02   0.312E+02 -.438E+02 0.147E+02   0.360E+00 -.182E+00 -.900E-01   -.115E-02 -.430E-03 0.397E-04
   -.842E+01 0.190E+02 0.338E+01   0.837E+01 -.190E+02 -.342E+01   0.576E-01 0.209E-01 0.365E-01   -.979E-03 -.271E-03 0.367E-03
   0.106E-02 0.844E+01 0.712E+01   -.121E-02 -.842E+01 -.710E+01   -.654E-04 -.173E-01 -.293E-01   -.138E-03 0.438E-04 0.116E-03
   0.322E-02 0.269E+01 0.353E+01   -.918E-03 -.274E+01 -.355E+01   -.188E-02 0.554E-01 0.192E-01   -.564E-04 -.406E-04 -.146E-03
   0.772E+00 0.949E+01 0.156E+02   -.845E+00 -.948E+01 -.156E+02   0.718E-01 -.105E-01 -.525E-02   -.743E-03 -.102E-03 -.871E-04
   -.289E+01 -.719E+01 -.949E+01   0.295E+01 0.721E+01 0.949E+01   -.673E-01 -.192E-01 0.683E-02   0.770E-03 0.126E-03 -.293E-03
   0.101E-01 0.525E-02 -.121E+02   -.102E-01 -.182E-02 0.120E+02   0.229E-03 -.151E-02 0.129E+00   0.127E-03 -.121E-03 -.963E-03
   -.820E-02 -.603E+02 -.197E+02   0.768E-02 0.598E+02 0.197E+02   -.154E-02 0.449E+00 -.684E-01   0.890E-04 0.129E-02 -.143E-03
   -.805E+01 0.729E-02 -.409E+01   0.796E+01 -.662E-02 0.409E+01   0.770E-01 -.418E-03 -.337E-02   0.168E-02 -.305E-04 0.679E-05
   0.842E+01 -.190E+02 0.340E+01   -.836E+01 0.190E+02 -.344E+01   -.569E-01 -.212E-01 0.362E-01   0.101E-02 0.140E-03 0.376E-03
   0.120E-01 0.653E-01 0.286E+01   -.120E-01 -.654E-01 -.265E+01   0.267E-03 -.977E-03 -.206E+00   0.798E-04 -.909E-04 0.909E-03
   0.235E+00 -.217E+02 0.281E+02   -.233E+00 0.214E+02 -.280E+02   -.552E-02 0.289E+00 -.535E-01   0.533E-04 0.443E-03 0.334E-04
   -.528E+01 -.829E-01 0.826E+01   0.531E+01 0.825E-01 -.820E+01   -.317E-01 0.192E-02 -.604E-01   0.968E-03 -.782E-04 -.880E-04
   0.388E+01 -.846E+01 -.181E+02   -.385E+01 0.843E+01 0.181E+02   -.245E-01 0.249E-01 -.511E-02   0.441E-03 0.223E-03 -.173E-03
   0.208E-01 -.313E+02 -.201E+02   -.206E-01 0.310E+02 0.197E+02   -.172E-03 0.265E+00 0.430E+00   0.113E-03 0.772E-03 -.309E-03
   0.775E-02 -.267E+03 -.182E+03   -.763E-02 0.266E+03 0.180E+03   -.527E-04 0.143E+01 0.174E+01   0.488E-04 0.147E-02 -.313E-03
   0.316E+02 -.439E+02 -.146E+02   -.313E+02 0.437E+02 0.147E+02   -.358E+00 0.180E+00 -.913E-01   0.118E-02 0.401E-03 0.289E-04
   0.546E+02 -.192E+02 0.250E+02   -.544E+02 0.192E+02 -.251E+02   -.196E+00 0.131E-01 0.660E-01   0.493E-03 0.221E-03 0.232E-03
   0.190E-01 -.923E+02 0.403E+02   -.178E-01 0.922E+02 -.406E+02   -.708E-03 0.983E-01 0.270E+00   0.102E-03 0.954E-03 0.597E-03
   0.992E-02 -.384E+02 0.281E+02   -.105E-01 0.381E+02 -.281E+02   0.105E-02 0.293E+00 -.396E-01   0.423E-04 0.669E-03 0.147E-04
   -.762E+00 -.943E+01 0.155E+02   0.835E+00 0.942E+01 -.155E+02   -.736E-01 0.849E-02 -.472E-02   0.763E-03 0.115E-03 -.810E-04
   0.386E+01 0.848E+01 -.181E+02   -.383E+01 -.846E+01 0.181E+02   -.240E-01 -.245E-01 -.530E-02   0.340E-03 -.149E-03 -.206E-03
   0.323E-02 -.827E-02 -.863E+02   -.336E-02 0.104E-01 0.848E+02   0.816E-04 -.134E-02 0.148E+01   0.117E-03 0.112E-03 0.902E-05
   0.908E-03 0.267E+03 -.182E+03   -.970E-03 -.266E+03 0.180E+03   0.341E-04 -.142E+01 0.174E+01   0.427E-04 -.137E-02 -.322E-03
   0.871E+02 -.141E-01 -.339E+02   -.871E+02 0.136E-01 0.339E+02   -.110E-01 0.229E-03 -.504E-02   0.584E-03 0.667E-05 0.325E-04
   0.545E+02 0.193E+02 0.250E+02   -.543E+02 -.192E+02 -.251E+02   -.195E+00 -.128E-01 0.649E-01   0.456E-03 -.135E-03 0.255E-03
   -.603E-02 0.157E-01 0.263E+03   0.648E-02 -.174E-01 -.261E+03   -.417E-03 -.520E-03 -.286E+01   0.115E-03 0.968E-04 0.105E-03
   0.446E-02 0.385E+02 0.281E+02   -.543E-02 -.382E+02 -.281E+02   0.469E-03 -.299E+00 -.375E-01   0.692E-04 -.581E-03 0.321E-04
   0.337E+01 0.741E-02 0.178E+02   -.337E+01 -.738E-02 -.178E+02   -.702E-02 -.486E-03 -.986E-02   0.556E-03 0.818E-04 -.769E-04
   -.296E+01 0.714E+01 -.949E+01   0.303E+01 -.716E+01 0.948E+01   -.666E-01 0.183E-01 0.633E-02   0.690E-03 -.211E-03 -.314E-03
   0.165E-01 0.314E+02 -.201E+02   -.168E-01 -.312E+02 0.197E+02   0.157E-04 -.268E+00 0.433E+00   0.108E-03 -.748E-03 -.270E-03
   -.622E-02 0.599E+02 -.198E+02   0.600E-02 -.595E+02 0.199E+02   0.267E-04 -.450E+00 -.744E-01   0.938E-04 -.140E-02 -.140E-03
   0.316E+02 0.439E+02 -.146E+02   -.312E+02 -.438E+02 0.147E+02   -.359E+00 -.182E+00 -.903E-01   0.112E-02 -.398E-03 0.149E-04
[...]
   -.189E+01 0.433E+01 0.616E+02   0.181E+01 -.439E+01 -.660E+02   0.841E-01 0.519E-01 0.437E+01   0.317E-03 -.855E-04 0.363E-05
   0.654E+01 0.905E+01 -.722E+02   -.688E+01 -.899E+01 0.765E+02   0.332E+00 -.633E-01 -.432E+01   0.396E-03 -.151E-03 -.252E-03
   -.650E+02 0.195E+01 -.285E+01   0.698E+02 -.168E+01 0.283E+01   -.476E+01 -.269E+00 0.148E-01   0.460E-03 -.357E-04 0.370E-04
   0.570E+02 0.201E+02 -.526E+01   -.611E+02 -.206E+02 0.516E+01   0.410E+01 0.501E+00 0.104E+00   0.150E-02 -.334E-03 -.811E-05
   0.305E-02 -.261E+02 0.666E+02   -.320E-02 0.334E+02 -.750E+02   0.781E-04 -.726E+01 0.833E+01   0.694E-04 -.907E-03 -.869E-03
   0.644E-02 0.858E+02 -.832E+02   -.811E-02 -.863E+02 0.880E+02   0.161E-02 0.514E+00 -.488E+01   0.631E-04 -.101E-02 0.938E-03
   -.643E+02 0.183E+02 0.515E+01   0.690E+02 -.183E+02 -.527E+01   -.467E+01 -.474E-01 0.117E+00   0.604E-03 -.310E-03 0.298E-03
   0.647E+02 0.308E+01 0.178E+01   -.690E+02 -.304E+01 -.175E+01   0.431E+01 -.431E-01 -.243E-01   0.174E-03 -.426E-04 0.992E-04
   0.166E+02 0.175E+02 0.632E+02   -.167E+02 -.173E+02 -.675E+02   0.589E-01 -.121E+00 0.428E+01   0.439E-03 -.153E-03 0.259E-03
   0.142E+02 0.927E+01 -.543E+02   -.148E+02 -.928E+01 0.588E+02   0.550E+00 0.947E-02 -.456E+01   0.368E-03 -.771E-04 -.101E-04
   -.657E+02 0.160E+01 0.548E+01   0.704E+02 -.155E+01 -.565E+01   -.464E+01 -.545E-01 0.169E+00   0.182E-03 -.609E-04 -.655E-04
   0.553E+02 0.540E+01 0.688E+01   -.594E+02 -.552E+01 -.679E+01   0.410E+01 0.123E+00 -.933E-01   0.107E-02 -.177E-03 -.486E-06
   -.375E-02 0.121E+02 0.974E+02   0.440E-02 -.118E+02 -.103E+03   -.656E-03 -.226E+00 0.541E+01   0.682E-04 -.490E-03 -.606E-03
   -.120E-02 -.128E+02 -.475E+02   0.189E-02 0.150E+02 0.508E+02   -.680E-03 -.222E+01 -.327E+01   0.818E-04 -.430E-03 0.454E-03
   0.443E-01 0.692E-01 -.128E+02   -.158E-11 0.503E-12 0.249E-12   -.495E-01 -.756E-01 0.130E+02   -.123E-03 -.709E-04 -.482E-03

 POSITION                                       TOTAL-FORCE (eV/Angst)
      3.23927      1.47118      1.41898         0.000132      0.000437      0.001048
     12.99570     11.76840      1.41970        -0.000256     -0.000336      0.000608
     12.99569      1.47132      4.67037         0.000207     -0.000102     -0.001981
      3.25079     11.76840      4.66827         0.002459      0.000505     -0.001292
      3.24776      1.47083      7.91761        -0.000275      0.000379     -0.000773
     12.99569      0.00000      7.92003        -0.000093     -0.000368      0.003495
      0.00001      1.47115     11.16655        -0.000406     -0.002051     -0.000814
      3.25059      0.00010     11.16901         0.000478      0.000312     -0.001322
      3.24863      4.41494      1.42318        -0.002216     -0.000026      0.001693
     12.99569      2.94588      1.42076        -0.000028      0.001462      0.000048
     12.99569      4.41482      4.66780        -0.000108     -0.000527      0.001000
      3.24576      2.93962      4.67204         0.001747     -0.001967     -0.000454
      3.24045      4.41635      7.90854         0.000010     -0.000595      0.001790
      0.00001      2.94050      7.91947         0.000442      0.002819     -0.003187
      0.00004      4.41415     11.16637         0.000890     -0.000861     -0.002777
      3.24823      2.94241     11.16598        -0.000875      0.001540      0.001648
      3.24864      7.35347      1.42319        -0.002039     -0.000558      0.001615
      0.00001      5.88420      1.41917        -0.000157      0.000273      0.002956
      0.00000      7.35358      4.66781        -0.000075      0.000236      0.000877
      3.26365      5.88419      4.67123        -0.000685      0.000440     -0.003105
      3.24050      7.35206      7.90851        -0.000228      0.000730      0.002100
      0.00003      5.88425      7.91990         0.000213     -0.000281      0.000773
      0.00000      7.35425     11.16638        -0.000066      0.001521     -0.002844
      3.25181      5.88419     11.16734        -0.001651     -0.000388      0.000394
      3.23936     10.29725      1.41899         0.000075     -0.001891      0.000369
      0.00001      8.82254      1.42076        -0.000431     -0.001190     -0.000211
     12.99568     10.29707      4.67036         0.000175      0.000475     -0.001873
      3.24575      8.82880      4.67204         0.001634      0.001526     -0.000382
      3.24772     10.29757      7.91759        -0.000136     -0.000223     -0.000337
      0.00001      8.82785      7.91947        -0.000332     -0.001584     -0.002985
      0.00005     10.29726     11.16654         0.000391      0.002023     -0.000824
      3.24812      8.82590     11.16600        -0.001855     -0.001128      0.001038
      9.75644      1.47116      1.41901        -0.000320     -0.000019      0.000089
      6.49783      0.00014      1.39093         0.000279      0.001835     -0.008039
      6.49779      1.40508      4.69603        -0.001937      0.003455     -0.005081
      9.74488      0.00001      4.66828        -0.002161      0.000259     -0.001679
      9.74794      1.47084      7.91759         0.000296      0.000527      0.000085
      6.49783      0.00007      7.92710         0.000345     -0.001109     -0.001083
      6.49852      1.45165     11.11257        -0.003785     -0.006689     -0.004310
      9.74533     11.76827     11.16900        -0.001434      0.001482     -0.000941
      9.74706      4.41495      1.42318         0.002371     -0.000496      0.001402
      6.49784      2.92117      1.32996         0.000156     -0.000840      0.001404
      6.49785      4.22486      4.44556         0.000139      0.006041     -0.003462
      9.74991      2.93959      4.67201        -0.001047     -0.003266     -0.001737
      9.75548      4.41639      7.90843        -0.000104     -0.000979      0.002241
      6.49786      2.95487      7.85368         0.000575      0.001738     -0.004993
      6.49780      4.35805     11.21047         0.000574      0.002297      0.004143
      9.74771      2.94263     11.16596         0.000037     -0.000486      0.001513
      9.74705      7.35347      1.42318         0.002374     -0.001062      0.001566
      6.49785      5.88423      1.39083         0.000092      0.000945     -0.006182
      6.49785      7.54376      4.44585         0.000042     -0.009082      0.000915
      9.73204      5.88419      4.67118         0.000908     -0.000270     -0.002611
      9.75519      7.35207      7.90857         0.000699      0.000857      0.001301
      6.49787      5.88427      8.18201         0.000177     -0.002162     -0.001198
      6.49783      7.41066     11.21042        -0.000399     -0.006202      0.002497
      9.74384      5.88423     11.16732         0.001124     -0.000339      0.000715
      9.75628     10.29716      1.41900         0.000946      0.000569      0.000176
      6.49785      8.84744      1.32979        -0.000193     -0.003723      0.003197
      6.49785     10.36274      4.69525        -0.000072      0.003247     -0.006860
      9.74994      8.82880      4.67204        -0.001192      0.001445      0.000078
[...]
     11.72141     10.29712      1.42138         0.000294     -0.000257      0.001040
      9.74073      8.82331      0.14632        -0.000204     -0.000670      0.000258
      9.72949      8.82713      2.69700        -0.001070     -0.000463     -0.000400
     11.01314     10.28956      4.67035        -0.000613      0.000142      0.000981
      8.46576     10.30123      4.67325         0.000490      0.000208     -0.000713
      6.49785      8.91624      3.32752         0.000018      0.002805     -0.000284
      6.49778      8.80503      5.89019         0.000035     -0.000020     -0.000006
      7.76157     10.28218      7.89144         0.000918      0.000363     -0.001430
     11.71984     10.29574      7.92022         0.001721      0.000445      0.000379
      9.74430      8.82416      6.64187         0.000280     -0.000903      0.001151
      9.72020      8.81472      9.18350         0.000055     -0.000579     -0.000081
     11.01408     10.29496     11.15813         0.001714     -0.000699      0.001623
      8.46491     10.29545     11.15295        -0.000203     -0.000995     -0.001200
      6.49784      8.79287      9.86701         0.000087     -0.001480      0.002852
      6.49785      8.84818     12.42411         0.000115     -0.003776      0.002969
    total drift:                               -0.005310     -0.006500      0.186079

  FREE ENERGIE OF THE ION-ELECTRON SYSTEM (eV)
  free  energy   TOTEN  =     -1785.67577674 eV

  energy  without entropy=    -1785.61483245  energy(sigma->0) =    -1785.64530460

 total charge

# of ion       s       p       d       tot
    1        2.226   6.308   1.739  10.273
    2        2.226   6.308   1.739  10.272
    3        2.225   6.307   1.739  10.271
    4        2.225   6.308   1.741  10.275
    5        2.225   6.307   1.739  10.271
    6        2.225   6.307   1.738  10.271
    7        2.225   6.308   1.739  10.272
    8        2.225   6.307   1.739  10.271
    9        2.226   6.308   1.740  10.274
   10        2.226   6.308   1.740  10.274
   11        2.224   6.305   1.736  10.266
   12        2.225   6.306   1.739  10.269
   13        2.226   6.309   1.741  10.275
   14        2.226   6.308   1.740  10.274
   15        2.225   6.308   1.739  10.272
   16        2.225   6.307   1.739  10.271
   17        2.226   6.308   1.740  10.274
   18        2.225   6.308   1.740  10.273
   19        2.224   6.305   1.736  10.266
   20        2.226   6.308   1.739  10.273
   21        2.226   6.309   1.741  10.275
   22        2.226   6.309   1.740  10.274
   23        2.225   6.308   1.739  10.272
   24        2.225   6.308   1.740  10.272
   25        2.226   6.308   1.739  10.273
   26        2.226   6.308   1.740  10.274
   27        2.225   6.307   1.739  10.271
   28        2.225   6.306   1.739  10.269
   29        2.225   6.307   1.739  10.271
   30        2.226   6.308   1.740  10.274
   31        2.225   6.308   1.739  10.272
   32        2.225   6.307   1.739  10.271
   33        2.226   6.308   1.739  10.273
   34        2.225   6.308   1.746  10.279
   35        2.227   6.315   1.793  10.336
   36        2.225   6.308   1.741  10.275
   37        2.225   6.307   1.739  10.271
   38        2.228   6.313   1.756  10.297
   39        2.224   6.307   1.760  10.291
   40        2.225   6.307   1.739  10.271
   41        2.226   6.308   1.740  10.274
   42        2.231   6.319   1.771  10.321
   43        2.245   6.300   1.899  10.445
   44        2.225   6.306   1.739  10.269
   45        2.226   6.309   1.741  10.275
   46        2.223   6.300   1.730  10.253
   47        2.230   6.315   1.763  10.308
   48        2.225   6.307   1.739  10.271
   49        2.226   6.308   1.740  10.274
   50        2.224   6.300   1.747  10.272
   51        2.245   6.300   1.899  10.445
   52        2.226   6.308   1.739  10.273
   53        2.226   6.309   1.741  10.275
   54        2.247   6.312   1.897  10.456
   55        2.230   6.315   1.763  10.308
   56        2.225   6.308   1.740  10.272
   57        2.226   6.308   1.739  10.273
   58        2.231   6.319   1.771  10.321
   59        2.227   6.315   1.793  10.336
   60        2.225   6.306   1.739  10.269
[...]
  177        1.570   3.486   0.000   5.056
  178        1.569   3.484   0.000   5.054
  179        1.569   3.484   0.000   5.053
  180        1.570   3.485   0.000   5.054
  181        1.569   3.486   0.000   5.055
  182        1.578   3.505   0.000   5.083
  183        1.570   3.487   0.000   5.057
  184        1.570   3.483   0.000   5.053
  185        1.569   3.485   0.000   5.054
  186        1.570   3.486   0.000   5.056
  187        1.569   3.483   0.000   5.052
  188        1.570   3.484   0.000   5.054
  189        1.569   3.485   0.000   5.054
  190        1.568   3.475   0.000   5.043
  191        1.573   3.511   0.000   5.084
tot        341.848 846.394 112.0661300.309