 vasp.6.2.1 16May21 (build Oct 07 2021 14:09:27) complex

 executed on             LinuxIFC date 2021.10.11  15:48:42

 INCAR:
   SYSTEM = MgO
   ISMEAR = 0
   SIGMA = 0.05
   EDIFF = 1E-5
   ALGO = Fast
   ISYM = 0
   GGA = PE
   IBRION = -1
   NSW = 0
   EDIFFG = -0.01
   ENCUT = 500
   PREC = Normal
   LASPH = .TRUE.
   LREAL = Auto
   ISPIN = 1
   NELM = 300
   NCORE = 38
   LWAVE = .FALSE.
   LCHARG = .FALSE.
   LORBIT = 11

 POTCAR:    PAW_PBE Mg_sv 12Apr2007
 POTCAR:    PAW_PBE O 08Apr2002
|           W    W    AA    RRRRR   N    N  II  N    N   GGGG   !!!           |
|           W    W   A  A   R    R  NN   N  II  NN   N  G    G  !!!           |
|           W    W  A    A  R    R  N N  N  II  N N  N  G       !!!           |
|           W WW W  AAAAAA  RRRRR   N  N N  II  N  N N  G  GGG   !            |
|           WW  WW  A    A  R   R   N   NN  II  N   NN  G    G                |
|           W    W  A    A  R    R  N    N  II  N    N   GGGG   !!!           |
|     For optimal performance we recommend to set                             |
|       NCORE = 2 up to number-of-cores-per-socket                            |
|     This setting can greatly improve the performance of VASP for DFT.       |
|     The default, NCORE=1 might be grossly inefficient on modern             |
|     multi-core architectures or massively parallel machines. Do your        |
|     Unfortunately you need to use the default for GW and RPA                |
|     calculations (for HF NCORE is supported but not extensively tested      |
|     yet).                                                                   |

   TITEL  = PAW_PBE Mg_sv 12Apr2007
   POMASS =   24.305; ZVAL   =   10.000    mass and valenz
   ENMAX  =  495.223; ENMIN  =  371.417 eV

   TITEL  = PAW_PBE O 08Apr2002
   POMASS =   16.000; ZVAL   =    6.000    mass and valenz
   ENMAX  =  400.000; ENMIN  =  300.000 eV

 Optimization of the real space projectors (new method)

 maximal supplied QI-value         = 22.11
 optimisation between [QCUT,QGAM] = [ 11.28, 22.77] = [ 35.61,145.23] Ry
 Optimized for a Real-space Cutoff    1.16 Angstroem

   l    n(q)    QCUT    max X(q) W(low)/X(q) W(high)/X(q)  e(spline)
   0      8    11.276     8.730    0.54E-04    0.73E-04    0.16E-07
   0      8    11.276     8.910    0.73E-04    0.10E-03    0.30E-07
   1      7    11.276     2.513    0.11E-03    0.16E-04    0.10E-06
   1      7    11.276     3.341    0.27E-03    0.22E-03    0.27E-06
   2      7    11.276     3.683    0.35E-03    0.35E-03    0.85E-07
 Optimization of the real space projectors (new method)

 maximal supplied QI-value         = 24.76
 optimisation between [QCUT,QGAM] = [ 11.39, 22.77] = [ 36.31,145.25] Ry
 Optimized for a Real-space Cutoff    1.00 Angstroem

   l    n(q)    QCUT    max X(q) W(low)/X(q) W(high)/X(q)  e(spline)
   0      7    11.387    20.381    0.39E-03    0.13E-02    0.15E-06
   0      7    11.387    15.268    0.42E-03    0.14E-02    0.17E-06
   1      6    11.387     5.964    0.41E-03    0.11E-02    0.17E-06
   1      6    11.387     5.382    0.39E-03    0.87E-03    0.15E-06
  PAW_PBE Mg_sv 12Apr2007               :
  PAW_PBE O 08Apr2002                   :

 POSCAR: Mg  O
  positions in direct lattice
  velocities in cartesian coordinates
 exchange correlation table for  LEXCH =        8
   RHO(1)=    0.500       N(1)  =     2000
   RHO(2)=  100.500       N(2)  =     4000

 ion  position               nearest neighbor table
   1  0.000  0.750  0.000-  33 2.10  35 2.10  36 2.10  39 2.10  44 2.10  49 2.10
   2  0.000  0.000  0.250-  34 2.10  35 2.10  36 2.10  40 2.10  43 2.10  50 2.10
   3  0.250  0.750  0.250-  33 2.10  34 2.10  35 2.10  37 2.10  42 2.10  51 2.10
   4  0.250  0.000  0.000-  33 2.10  34 2.10  36 2.10  38 2.10  41 2.10  52 2.10
   5  0.000  0.750  0.500-  35 2.10  37 2.10  39 2.10  40 2.10  48 2.10  53 2.10
   6  0.000  0.000  0.750-  36 2.10  38 2.10  39 2.10  40 2.10  47 2.10  54 2.10
   7  0.250  0.750  0.750-  33 2.10  37 2.10  38 2.10  39 2.10  46 2.10  55 2.10
   8  0.250  0.000  0.500-  34 2.10  37 2.10  38 2.10  40 2.10  45 2.10  56 2.10
   9  0.000  0.250  0.000-  36 2.10  41 2.10  43 2.10  44 2.10  47 2.10  57 2.10
  10  0.000  0.500  0.250-  35 2.10  42 2.10  43 2.10  44 2.10  48 2.10  58 2.10
  11  0.250  0.250  0.250-  34 2.10  41 2.10  42 2.10  43 2.10  45 2.10  59 2.10
  12  0.250  0.500  0.000-  33 2.10  41 2.10  42 2.10  44 2.10  46 2.10  60 2.10
  13  0.000  0.250  0.500-  40 2.10  43 2.10  45 2.10  47 2.10  48 2.10  61 2.10
  14  0.000  0.500  0.750-  39 2.10  44 2.10  46 2.10  47 2.10  48 2.10  62 2.10
  15  0.250  0.250  0.750-  38 2.10  41 2.10  45 2.10  46 2.10  47 2.10  63 2.10
  16  0.250  0.500  0.500-  37 2.10  42 2.10  45 2.10  46 2.10  48 2.10  64 2.10
  17  0.500  0.750  0.000-  33 2.10  49 2.10  51 2.10  52 2.10  55 2.10  60 2.10
  18  0.500  0.000  0.250-  34 2.10  50 2.10  51 2.10  52 2.10  56 2.10  59 2.10
  19  0.750  0.750  0.250-  35 2.10  49 2.10  50 2.10  51 2.10  53 2.10  58 2.10
  20  0.750  0.000  0.000-  36 2.10  49 2.10  50 2.10  52 2.10  54 2.10  57 2.10
  21  0.500  0.750  0.500-  37 2.10  51 2.10  53 2.10  55 2.10  56 2.10  64 2.10
  22  0.500  0.000  0.750-  38 2.10  52 2.10  54 2.10  55 2.10  56 2.10  63 2.10
  23  0.750  0.750  0.750-  39 2.10  49 2.10  53 2.10  54 2.10  55 2.10  62 2.10
  24  0.750  0.000  0.500-  40 2.10  50 2.10  53 2.10  54 2.10  56 2.10  61 2.10
  25  0.500  0.250  0.000-  41 2.10  52 2.10  57 2.10  59 2.10  60 2.10  63 2.10
  26  0.500  0.500  0.250-  42 2.10  51 2.10  58 2.10  59 2.10  60 2.10  64 2.10
  27  0.750  0.250  0.250-  43 2.10  50 2.10  57 2.10  58 2.10  59 2.10  61 2.10
  28  0.750  0.500  0.000-  44 2.10  49 2.10  57 2.10  58 2.10  60 2.10  62 2.10
  29  0.500  0.250  0.500-  45 2.10  56 2.10  59 2.10  61 2.10  63 2.10  64 2.10
  30  0.500  0.500  0.750-  46 2.10  55 2.10  60 2.10  62 2.10  63 2.10  64 2.10
  31  0.750  0.250  0.750-  47 2.10  54 2.10  57 2.10  61 2.10  62 2.10  63 2.10
  32  0.750  0.500  0.500-  48 2.10  53 2.10  58 2.10  61 2.10  62 2.10  64 2.10
  33  0.250  0.750  0.000-   1 2.10   3 2.10   4 2.10   7 2.10  12 2.10  17 2.10
  34  0.250  0.000  0.250-   2 2.10   3 2.10   4 2.10   8 2.10  11 2.10  18 2.10
  35  0.000  0.750  0.250-   1 2.10   2 2.10   3 2.10   5 2.10  10 2.10  19 2.10
  36  0.000  0.000  0.000-   1 2.10   2 2.10   4 2.10   6 2.10   9 2.10  20 2.10
  37  0.250  0.750  0.500-   3 2.10   5 2.10   7 2.10   8 2.10  16 2.10  21 2.10
  38  0.250  0.000  0.750-   4 2.10   6 2.10   7 2.10   8 2.10  15 2.10  22 2.10
  39  0.000  0.750  0.750-   1 2.10   5 2.10   6 2.10   7 2.10  14 2.10  23 2.10
  40  0.000  0.000  0.500-   2 2.10   5 2.10   6 2.10   8 2.10  13 2.10  24 2.10
  41  0.250  0.250  0.000-   4 2.10   9 2.10  11 2.10  12 2.10  15 2.10  25 2.10
  42  0.250  0.500  0.250-   3 2.10  10 2.10  11 2.10  12 2.10  16 2.10  26 2.10
  43  0.000  0.250  0.250-   2 2.10   9 2.10  10 2.10  11 2.10  13 2.10  27 2.10
  44  0.000  0.500  0.000-   1 2.10   9 2.10  10 2.10  12 2.10  14 2.10  28 2.10
  45  0.250  0.250  0.500-   8 2.10  11 2.10  13 2.10  15 2.10  16 2.10  29 2.10
  46  0.250  0.500  0.750-   7 2.10  12 2.10  14 2.10  15 2.10  16 2.10  30 2.10
  47  0.000  0.250  0.750-   6 2.10   9 2.10  13 2.10  14 2.10  15 2.10  31 2.10
  48  0.000  0.500  0.500-   5 2.10  10 2.10  13 2.10  14 2.10  16 2.10  32 2.10
  49  0.750  0.750  0.000-   1 2.10  17 2.10  19 2.10  20 2.10  23 2.10  28 2.10
  50  0.750  0.000  0.250-   2 2.10  18 2.10  19 2.10  20 2.10  24 2.10  27 2.10
  51  0.500  0.750  0.250-   3 2.10  17 2.10  18 2.10  19 2.10  21 2.10  26 2.10
  52  0.500  0.000  0.000-   4 2.10  17 2.10  18 2.10  20 2.10  22 2.10  25 2.10
  53  0.750  0.750  0.500-   5 2.10  19 2.10  21 2.10  23 2.10  24 2.10  32 2.10
  54  0.750  0.000  0.750-   6 2.10  20 2.10  22 2.10  23 2.10  24 2.10  31 2.10
  55  0.500  0.750  0.750-   7 2.10  17 2.10  21 2.10  22 2.10  23 2.10  30 2.10
  56  0.500  0.000  0.500-   8 2.10  18 2.10  21 2.10  22 2.10  24 2.10  29 2.10
  57  0.750  0.250  0.000-   9 2.10  20 2.10  25 2.10  27 2.10  28 2.10  31 2.10
  58  0.750  0.500  0.250-  10 2.10  19 2.10  26 2.10  27 2.10  28 2.10  32 2.10
  59  0.500  0.250  0.250-  11 2.10  18 2.10  25 2.10  26 2.10  27 2.10  29 2.10
  60  0.500  0.500  0.000-  12 2.10  17 2.10  25 2.10  26 2.10  28 2.10  30 2.10
  61  0.750  0.250  0.500-  13 2.10  24 2.10  27 2.10  29 2.10  31 2.10  32 2.10
  62  0.750  0.500  0.750-  14 2.10  23 2.10  28 2.10  30 2.10  31 2.10  32 2.10
  63  0.500  0.250  0.750-  15 2.10  22 2.10  25 2.10  29 2.10  30 2.10  31 2.10
  64  0.500  0.500  0.500-  16 2.10  21 2.10  26 2.10  29 2.10  30 2.10  32 2.10

IMPORTANT INFORMATION: All symmetrisations will be switched off!
NOSYMM: (Re-)initialisation of all symmetry stuff for point group C_1.

                                     Primitive cell

  volume of cell :     595.4418

  direct lattice vectors                    reciprocal lattice vectors
     8.412913863  0.000000000  0.000000000     0.118864880  0.000000000  0.000000000
     0.000000000  8.412913863  0.000000000     0.000000000  0.118864880  0.000000000
     0.000000000  0.000000000  8.412913863     0.000000000  0.000000000  0.118864880

  length of vectors
     8.412913863  8.412913863  8.412913863     0.118864880  0.118864880  0.118864880

  position of ions in fractional coordinates (direct lattice)
     0.000000000  0.750000000  0.000000000
     0.000000000  0.000000000  0.250000000
     0.250000000  0.750000000  0.250000000
     0.250000000  0.000000000  0.000000000
     0.000000000  0.750000000  0.500000000
     0.000000000  0.000000000  0.750000000
     0.250000000  0.750000000  0.750000000
     0.250000000  0.000000000  0.500000000
     0.000000000  0.250000000  0.000000000
     0.000000000  0.500000000  0.250000000
     0.250000000  0.250000000  0.250000000
     0.250000000  0.500000000  0.000000000
     0.000000000  0.250000000  0.500000000
     0.000000000  0.500000000  0.750000000
     0.250000000  0.250000000  0.750000000
     0.250000000  0.500000000  0.500000000
     0.500000000  0.750000000  0.000000000
     0.500000000  0.000000000  0.250000000
     0.750000000  0.750000000  0.250000000
     0.750000000  0.000000000  0.000000000
     0.500000000  0.750000000  0.500000000
     0.500000000  0.000000000  0.750000000
     0.750000000  0.750000000  0.750000000
     0.750000000  0.000000000  0.500000000
     0.500000000  0.250000000  0.000000000
     0.500000000  0.500000000  0.250000000
     0.750000000  0.250000000  0.250000000
     0.750000000  0.500000000  0.000000000
     0.500000000  0.250000000  0.500000000
     0.500000000  0.500000000  0.750000000
     0.750000000  0.250000000  0.750000000
     0.750000000  0.500000000  0.500000000
     0.250000000  0.750000000  0.000000000
     0.250000000  0.000000000  0.250000000
     0.000000000  0.750000000  0.250000000
     0.000000000  0.000000000  0.000000000
     0.250000000  0.750000000  0.500000000
     0.250000000  0.000000000  0.750000000
     0.000000000  0.750000000  0.750000000
     0.000000000  0.000000000  0.500000000
     0.250000000  0.250000000  0.000000000
     0.250000000  0.500000000  0.250000000
[...]
   -.474E-04 -.137E-04 0.238E-04   -.533E-13 -.639E-13 -.391E-13   -.618E-04 -.299E-03 -.114E-03   0.553E-04 0.925E-04 0.243E-04
   -.174E-03 0.160E-03 0.924E-04   0.355E-14 -.669E-13 -.503E-13   0.154E-03 -.133E-03 -.607E-04   0.260E-04 -.277E-04 0.954E-06
   0.114E-03 0.219E-03 -.197E-03   0.183E-13 0.355E-14 -.444E-13   -.236E-04 -.122E-03 0.193E-04   -.243E-04 -.601E-04 -.355E-04
   0.118E-03 -.902E-04 -.104E-03   0.130E-12 -.602E-13 -.124E-13   0.249E-04 0.171E-03 0.296E-03   -.959E-04 0.491E-04 0.637E-04
   0.160E-03 0.247E-03 0.116E-03   -.128E-12 0.639E-13 -.426E-13   -.319E-03 -.472E-03 -.511E-04   0.418E-04 0.600E-04 0.471E-04
   -.259E-03 0.174E-03 0.107E-03   -.711E-13 -.375E-13 -.391E-13   0.211E-03 -.142E-03 -.135E-03   -.130E-04 0.218E-04 0.149E-04
   0.924E-05 -.101E-03 -.693E-04   -.690E-13 -.320E-13 -.219E-13   -.155E-03 -.186E-04 0.942E-04   -.452E-04 -.612E-04 -.224E-04
   0.128E-03 0.948E-04 0.126E-03   -.372E-14 0.604E-13 0.355E-14   -.932E-04 -.713E-04 -.309E-03   -.747E-04 -.101E-04 0.298E-04
   -.133E-03 -.322E-05 -.995E-05   0.711E-13 -.107E-13 -.391E-13   0.864E-04 0.104E-04 -.338E-04   -.340E-04 -.890E-05 0.251E-04
   -.177E-03 -.557E-04 -.227E-04   -.426E-13 -.121E-12 -.526E-13   0.154E-03 0.110E-03 -.572E-04   0.516E-04 -.927E-05 0.198E-05
   0.142E-03 -.600E-04 -.382E-04   -.179E-12 0.000E+00 -.497E-13   -.116E-03 0.209E-04 0.163E-03   -.106E-03 0.745E-04 0.119E-04
   -.153E-04 -.796E-04 0.177E-03   -.177E-14 -.533E-13 -.213E-13   -.135E-03 0.149E-03 -.101E-03   -.745E-04 -.854E-04 -.557E-04
   -.117E-03 0.261E-03 0.657E-04   -.533E-13 0.213E-13 -.462E-13   0.248E-03 -.295E-03 0.185E-04   0.729E-04 -.139E-03 0.555E-04
   -.867E-04 0.114E-03 -.134E-04   0.568E-13 0.712E-14 -.391E-13   0.501E-05 -.979E-04 0.490E-04   -.294E-04 -.283E-04 -.334E-05
   0.136E-03 -.107E-03 -.101E-03   -.110E-12 -.174E-12 -.242E-13   -.454E-04 0.788E-04 0.148E-03   -.207E-04 0.404E-05 0.532E-04
   -.212E-03 0.416E-04 -.109E-03   -.532E-13 -.389E-13 -.178E-13   0.434E-03 -.219E-03 -.824E-04   -.894E-04 0.132E-05 -.389E-04
   0.171E-04 0.316E-04 0.526E-04   0.142E-13 -.711E-13 -.462E-13   -.214E-03 0.117E-03 -.152E-03   -.210E-04 -.666E-04 -.438E-04
   -.361E-03 -.275E-03 -.145E-03   -.941E-13 -.918E-13 -.645E-13   0.429E-03 0.403E-03 0.259E-05   0.532E-04 0.886E-04 0.301E-05
   -.183E-04 0.291E-03 -.909E-04   -.128E-12 -.114E-12 -.533E-13   0.244E-04 -.322E-03 -.600E-04   -.751E-04 0.150E-04 -.415E-04
   0.183E-03 0.117E-03 -.294E-03   -.141E-13 -.587E-13 -.462E-13   -.274E-03 -.108E-04 0.284E-03   -.104E-03 0.470E-04 0.117E-03
   0.548E-04 -.163E-04 0.824E-04   -.210E-12 -.711E-14 -.568E-13   0.659E-04 0.206E-03 0.115E-03   -.149E-04 0.427E-04 0.243E-04
   -.194E-03 0.690E-04 -.129E-03   0.178E-13 -.517E-13 -.426E-13   0.162E-03 0.525E-04 0.313E-03   0.103E-03 0.139E-03 0.746E-04
   0.317E-04 0.820E-04 -.329E-04   -.156E-12 -.391E-13 -.561E-13   0.114E-04 0.290E-04 -.199E-04   -.673E-05 -.121E-04 -.196E-04
   -.338E-04 0.186E-03 0.138E-03   -.428E-13 -.606E-13 -.284E-13   0.857E-04 -.136E-03 -.412E-04   0.494E-04 -.151E-04 0.141E-04
   -.272E-03 0.200E-03 0.240E-03   -.124E-12 -.320E-13 -.497E-13   0.473E-03 0.632E-04 -.676E-05   0.190E-04 0.886E-05 -.315E-05
   -.368E-04 0.164E-03 -.280E-04   -.174E-12 -.711E-13 -.669E-13   0.372E-04 0.729E-04 0.955E-04   -.833E-05 -.584E-04 0.380E-04
   0.252E-03 -.546E-04 0.160E-03   -.167E-12 -.568E-13 -.569E-13   -.316E-03 -.636E-04 -.188E-03   -.298E-04 0.595E-04 0.396E-04
   0.122E-03 0.255E-04 0.325E-04   -.569E-13 -.566E-13 -.568E-13   -.510E-04 0.126E-03 -.554E-04   -.206E-04 -.205E-04 -.331E-04
   -.253E-03 -.821E-04 0.881E-04   -.121E-12 0.711E-14 -.604E-13   0.215E-03 0.182E-03 -.457E-03   0.484E-04 -.511E-05 0.420E-04
   0.913E-04 0.527E-04 -.450E-04   -.227E-12 0.498E-13 -.462E-13   -.780E-04 -.285E-03 0.525E-04   0.403E-04 -.196E-04 -.547E-04
   -.218E-04 -.206E-03 -.995E-04   0.737E-13 -.133E-13 0.341E-13   -.466E-04 0.644E-04 0.820E-04   0.554E-04 0.146E-03 -.573E-05
   0.195E-03 -.237E-04 0.671E-04   -.222E-13 0.425E-14 0.462E-13   0.161E-04 0.118E-04 0.106E-03   -.718E-04 -.201E-04 -.791E-04
   0.129E-03 -.358E-04 0.534E-04   -.118E-13 0.799E-14 0.284E-13   -.193E-03 0.450E-04 -.221E-04   0.185E-05 -.594E-05 0.206E-04
   0.151E-03 0.975E-04 0.569E-04   -.791E-14 0.286E-13 0.390E-13   0.502E-04 -.187E-04 0.264E-04   -.339E-04 0.382E-04 -.336E-04
   -.149E-03 0.855E-04 -.309E-04   0.426E-13 0.284E-13 0.639E-13   0.811E-04 -.101E-03 -.878E-05   0.310E-04 -.221E-04 -.428E-05
   -.215E-03 -.194E-03 -.101E-03   0.702E-13 -.433E-13 0.187E-13   0.261E-04 0.712E-04 -.141E-03   0.541E-04 0.479E-04 0.871E-04
   0.384E-04 0.228E-06 -.262E-04   0.126E-13 0.409E-13 0.249E-13   -.374E-04 -.374E-04 0.226E-04   -.577E-05 0.866E-04 0.153E-04
   0.133E-03 -.205E-04 0.330E-05   0.480E-13 0.219E-13 0.266E-13   -.570E-04 -.457E-04 0.498E-04   -.139E-04 0.724E-04 -.237E-04
   -.176E-04 -.533E-05 0.133E-03   -.178E-14 0.471E-13 0.492E-13   -.266E-04 0.107E-03 0.160E-04   0.353E-04 -.130E-03 -.962E-04
   0.119E-03 0.515E-04 -.268E-03   0.711E-13 -.217E-16 0.568E-13   -.884E-04 -.907E-05 0.306E-04   -.450E-04 -.145E-05 0.115E-03
   0.867E-04 0.328E-05 -.143E-03   0.330E-13 0.577E-13 0.506E-13   0.937E-04 0.337E-04 0.121E-03   -.149E-03 -.265E-04 0.595E-04
   0.587E-04 0.789E-05 -.163E-03   0.127E-13 0.709E-14 0.557E-13   0.740E-04 0.231E-04 0.896E-05   -.105E-03 -.173E-04 0.700E-04
   0.165E-03 0.724E-04 0.574E-04   -.142E-13 0.000E+00 0.355E-13   -.574E-04 -.575E-04 -.472E-04   -.569E-04 0.346E-04 0.161E-04
   -.134E-03 -.101E-03 0.121E-03   0.426E-13 0.284E-13 0.497E-13   -.314E-04 -.304E-04 0.626E-04   0.516E-04 0.168E-05 -.104E-03
   0.205E-03 0.154E-03 0.237E-06   0.470E-13 0.364E-13 0.471E-13   -.457E-04 -.110E-04 0.548E-04   -.478E-04 -.107E-03 -.274E-04
   0.846E-04 -.738E-04 -.234E-03   0.493E-13 0.258E-13 0.506E-13   -.775E-04 0.302E-04 0.135E-03   -.739E-05 -.169E-04 0.726E-05
   -.115E-04 0.348E-04 -.158E-03   0.604E-13 0.338E-13 0.483E-13   0.206E-06 0.246E-04 0.882E-04   0.510E-05 -.555E-05 0.490E-04
   0.149E-04 -.530E-04 0.222E-03   0.113E-12 0.638E-13 0.488E-13   -.117E-03 -.670E-04 0.103E-03   0.835E-04 0.854E-04 -.167E-03
   0.106E-03 -.144E-03 0.104E-03   0.161E-12 0.568E-13 0.426E-13   -.880E-04 0.314E-04 -.339E-05   0.111E-04 0.315E-04 -.689E-04
   0.103E-03 0.447E-04 0.126E-03   0.125E-12 0.139E-13 0.566E-13   0.426E-04 0.368E-05 0.123E-04   -.754E-04 0.366E-05 -.128E-03
   -.283E-03 0.630E-04 -.274E-04   0.853E-13 0.711E-13 0.639E-13   0.166E-03 0.110E-05 0.858E-04   0.588E-04 -.105E-03 -.664E-04
   -.174E-03 -.392E-04 -.138E-03   0.119E-12 -.700E-15 0.488E-13   -.114E-04 -.366E-04 0.578E-04   0.894E-04 0.455E-04 0.999E-04
   -.318E-04 0.128E-03 0.164E-03   0.157E-12 0.853E-13 0.426E-13   -.762E-04 -.708E-04 -.794E-04   0.762E-05 -.457E-04 -.101E-04
   0.670E-04 -.886E-04 0.718E-04   0.191E-12 0.124E-13 0.284E-13   0.942E-04 0.332E-05 -.249E-04   -.113E-03 0.123E-04 0.267E-04
   0.382E-04 0.167E-03 -.175E-03   0.817E-13 0.782E-13 0.492E-13   -.350E-04 -.891E-05 0.616E-06   0.977E-05 -.554E-04 0.919E-04
   -.241E-03 -.206E-04 -.103E-03   0.568E-13 0.479E-13 0.355E-13   0.654E-04 0.911E-04 -.322E-04   0.788E-04 -.643E-04 0.561E-04
   -.103E-03 -.664E-04 0.682E-04   0.133E-12 0.426E-13 0.213E-13   -.155E-05 -.258E-04 0.804E-05   0.125E-03 0.416E-04 -.606E-04
   0.230E-04 -.138E-03 -.704E-04   0.996E-13 0.568E-13 0.345E-13   -.412E-04 0.468E-04 0.309E-05   0.681E-04 0.195E-04 -.154E-04
   -.147E-03 -.105E-03 0.963E-05   0.114E-12 0.284E-13 0.497E-13   -.630E-04 -.694E-04 0.608E-04   0.968E-04 0.103E-03 -.300E-04
   0.404E-04 -.563E-04 0.104E-03   0.142E-12 0.711E-13 0.497E-13   0.218E-04 0.183E-03 -.317E-05   -.465E-04 -.761E-04 -.575E-04
   0.610E-04 0.140E-03 -.643E-04   0.163E-12 0.426E-13 0.497E-13   0.178E-04 -.629E-04 -.237E-06   -.145E-04 -.482E-04 0.625E-04
   0.537E-04 0.629E-04 -.227E-04   0.149E-12 0.995E-13 0.355E-13   -.466E-05 -.204E-04 -.683E-05   -.767E-05 -.335E-04 0.317E-04
   -.383E-03 0.103E-02 -.589E-03   0.575E-12 -.159E-12 0.900E-13   0.657E-03 -.492E-03 0.694E-03   -.342E-03 0.127E-03 0.103E-03

 POSITION                                       TOTAL-FORCE (eV/Angst)
      0.00000      6.30969      0.00000         0.000186      0.000140      0.000099
      0.00000      0.00000      2.10323        -0.000098     -0.000101     -0.000158
      2.10323      6.30969      2.10323        -0.000053     -0.000230     -0.000069
      2.10323      0.00000      0.00000         0.000008     -0.000011      0.000029
      0.00000      6.30969      4.20646         0.000067      0.000027     -0.000217
      0.00000      0.00000      6.30969         0.000048      0.000120      0.000252
      2.10323      6.30969      6.30969        -0.000116     -0.000175      0.000109
      2.10323      0.00000      4.20646        -0.000060      0.000043     -0.000017
      0.00000      2.10323      0.00000        -0.000190     -0.000191     -0.000001
      0.00000      4.20646      2.10323        -0.000039      0.000003     -0.000156
      2.10323      2.10323      2.10323        -0.000079     -0.000012     -0.000022
      2.10323      4.20646      0.00000         0.000030      0.000035     -0.000081
      0.00000      2.10323      4.20646        -0.000079      0.000025      0.000134
      0.00000      4.20646      6.30969        -0.000224     -0.000026      0.000017
      2.10323      2.10323      6.30969         0.000204     -0.000183      0.000136
      2.10323      4.20646      4.20646        -0.000110     -0.000022      0.000029
      4.20646      6.30969      0.00000         0.000071     -0.000034      0.000097
      4.20646      0.00000      2.10323         0.000134     -0.000186     -0.000234
      6.30969      6.30969      2.10323        -0.000217      0.000072     -0.000146
      6.30969      0.00000      0.00000         0.000122      0.000207     -0.000142
      4.20646      6.30969      4.20646        -0.000068     -0.000026     -0.000196
      4.20646      0.00000      6.30969        -0.000193      0.000143      0.000104
      6.30969      6.30969      6.30969         0.000107      0.000222      0.000219
      6.30969      0.00000      4.20646         0.000072      0.000250      0.000255
      4.20646      2.10323      0.00000         0.000037      0.000089     -0.000076
      4.20646      4.20646      2.10323         0.000102      0.000025      0.000107
      6.30969      2.10323      2.10323         0.000221      0.000262      0.000227
      6.30969      4.20646      0.00000        -0.000007      0.000168      0.000102
      4.20646      2.10323      4.20646        -0.000093     -0.000069      0.000008
      4.20646      4.20646      6.30969         0.000052      0.000121     -0.000059
      6.30969      2.10323      6.30969         0.000012      0.000084     -0.000331
      6.30969      4.20646      4.20646         0.000055     -0.000262     -0.000050
      2.10323      6.30969      0.00000        -0.000012     -0.000006     -0.000026
      2.10323      0.00000      2.10323         0.000140     -0.000042      0.000091
      0.00000      6.30969      2.10323        -0.000061     -0.000007      0.000049
      0.00000      0.00000      0.00000         0.000169      0.000107      0.000046
      2.10323      6.30969      4.20646        -0.000036     -0.000048     -0.000047
      2.10323      0.00000      6.30969        -0.000134     -0.000085     -0.000158
      0.00000      6.30969      6.30969        -0.000004      0.000039      0.000008
      0.00000      0.00000      4.20646         0.000063     -0.000004      0.000026
      2.10323      2.10323      0.00000        -0.000008     -0.000039      0.000049
      2.10323      4.20646      2.10323        -0.000014      0.000031     -0.000126
      0.00000      2.10323      2.10323         0.000033      0.000000      0.000035
      0.00000      4.20646      0.00000         0.000029      0.000003     -0.000087
      2.10323      2.10323      4.20646         0.000052      0.000039      0.000023
      2.10323      4.20646      6.30969        -0.000112     -0.000140      0.000076
      0.00000      2.10323      6.30969         0.000113      0.000025      0.000024
      0.00000      4.20646      4.20646         0.000001     -0.000071     -0.000095
      6.30969      6.30969      0.00000        -0.000005      0.000044     -0.000024
      6.30969      0.00000      2.10323        -0.000018     -0.000045      0.000154
      4.20646      6.30969      2.10323         0.000031     -0.000092      0.000028
      4.20646      0.00000      0.00000         0.000071      0.000042      0.000008
      6.30969      6.30969      4.20646        -0.000057     -0.000051     -0.000011
      6.30969      0.00000      6.30969        -0.000095     -0.000041      0.000017
      4.20646      6.30969      6.30969        -0.000099      0.000001      0.000071
      4.20646      0.00000      4.20646         0.000049     -0.000083      0.000070
      6.30969      2.10323      0.00000         0.000014      0.000092     -0.000086
      6.30969      4.20646      2.10323        -0.000096     -0.000004     -0.000083
      4.20646      2.10323      2.10323         0.000021     -0.000061      0.000012
      4.20646      4.20646      0.00000         0.000051     -0.000082     -0.000086
      6.30969      2.10323      4.20646        -0.000112     -0.000081      0.000037
      6.30969      4.20646      6.30969         0.000017      0.000040      0.000040
      4.20646      2.10323      6.30969         0.000065      0.000018     -0.000005
      4.20646      4.20646      4.20646         0.000042     -0.000001     -0.000001
    total drift:                               -0.000068      0.000665      0.000208

  FREE ENERGIE OF THE ION-ELECTRON SYSTEM (eV)
  free  energy   TOTEN  =      -379.86566351 eV

  energy  without entropy=     -379.86566351  energy(sigma->0) =     -379.86566351

 total charge

# of ion       s       p       d       tot
    1        2.071   6.013   0.041   8.125
    2        2.071   6.013   0.041   8.125
    3        2.071   6.013   0.041   8.125
    4        2.071   6.013   0.041   8.125
    5        2.071   6.013   0.041   8.125
    6        2.071   6.013   0.041   8.125
    7        2.071   6.013   0.041   8.125
    8        2.071   6.013   0.041   8.125
    9        2.071   6.013   0.041   8.125
   10        2.071   6.013   0.041   8.125
   11        2.071   6.013   0.041   8.125
   12        2.071   6.013   0.041   8.125
   13        2.071   6.013   0.041   8.125
   14        2.071   6.013   0.041   8.125
   15        2.071   6.013   0.041   8.125
   16        2.071   6.013   0.041   8.125
   17        2.071   6.013   0.041   8.125
   18        2.071   6.013   0.041   8.125
   19        2.071   6.013   0.041   8.125
   20        2.071   6.013   0.041   8.125
   21        2.071   6.013   0.041   8.125
   22        2.071   6.013   0.041   8.125
   23        2.071   6.013   0.041   8.125
   24        2.071   6.013   0.041   8.125
   25        2.071   6.013   0.041   8.125
   26        2.071   6.013   0.041   8.125
   27        2.071   6.013   0.041   8.125
   28        2.071   6.013   0.041   8.125
   29        2.071   6.013   0.041   8.125
   30        2.071   6.013   0.041   8.125
   31        2.071   6.013   0.041   8.125
   32        2.071   6.013   0.041   8.125
   33        1.544   3.564   0.000   5.108
   34        1.544   3.564   0.000   5.108
   35        1.544   3.564   0.000   5.108
   36        1.544   3.564   0.000   5.108
   37        1.544   3.564   0.000   5.108
   38        1.544   3.564   0.000   5.108
   39        1.544   3.564   0.000   5.108
   40        1.544   3.564   0.000   5.108
   41        1.544   3.564   0.000   5.108
   42        1.544   3.564   0.000   5.108
   43        1.544   3.564   0.000   5.108
   44        1.544   3.564   0.000   5.108
   45        1.544   3.564   0.000   5.108
   46        1.544   3.564   0.000   5.108
   47        1.544   3.564   0.000   5.108
   48        1.544   3.564   0.000   5.108
   49        1.544   3.564   0.000   5.108
   50        1.544   3.564   0.000   5.108
   51        1.544   3.564   0.000   5.108
   52        1.544   3.564   0.000   5.108
   53        1.544   3.564   0.000   5.108
   54        1.544   3.564   0.000   5.108
   55        1.544   3.564   0.000   5.108
   56        1.544   3.564   0.000   5.108
   57        1.544   3.564   0.000   5.108
   58        1.544   3.564   0.000   5.108
   59        1.544   3.564   0.000   5.108
   60        1.544   3.564   0.000   5.108
   61        1.544   3.564   0.000   5.108
   62        1.544   3.564   0.000   5.108
   63        1.544   3.564   0.000   5.108
   64        1.544   3.564   0.000   5.108
tot        115.682 306.438   1.321 423.441