 vasp.6.2.0 18Jan21 (build Mar 03 2021 13:27:41) complex

 executed on             LinuxIFC date 2021.10.17  00:37:35

 INCAR:
   SYSTEM = TiO2-rutile
   ISMEAR = 0
   SIGMA = 0.05
   EDIFF = 1E-5
   ALGO = Fast
   ISYM = 0
   GGA = PE
   IBRION = -1
   NSW = 0
   EDIFFG = -0.01
   ENCUT = 500
   PREC = Normal
   LASPH = .TRUE.
   LREAL = Auto
   ISPIN = 1
   NELM = 300
   NCORE = 20
   LWAVE = .FALSE.
   LCHARG = .FALSE.
   LORBIT = 11

 POTCAR:    PAW_PBE O 08Apr2002
 POTCAR:    PAW_PBE Ti_sv 26Sep2005
 POTCAR:    PAW_PBE O 08Apr2002
   VRHFIN =O: s2p4

   TITEL  = PAW_PBE O 08Apr2002
   POMASS =   16.000; ZVAL   =    6.000    mass and valenz
   ENMAX  =  400.000; ENMIN  =  300.000 eV

   TITEL  = PAW_PBE Ti_sv 26Sep2005
   POMASS =   47.880; ZVAL   =   12.000    mass and valenz
   ENMAX  =  274.610; ENMIN  =  205.957 eV

 Optimization of the real space projectors (new method)

 maximal supplied QI-value         = 24.76
 optimisation between [QCUT,QGAM] = [ 11.39, 22.77] = [ 36.31,145.25] Ry
 Optimized for a Real-space Cutoff    1.00 Angstroem

   l    n(q)    QCUT    max X(q) W(low)/X(q) W(high)/X(q)  e(spline)
   0      7    11.387    20.381    0.39E-03    0.13E-02    0.15E-06
   0      7    11.387    15.268    0.42E-03    0.14E-02    0.17E-06
   1      6    11.387     5.964    0.41E-03    0.11E-02    0.17E-06
   1      6    11.387     5.382    0.39E-03    0.87E-03    0.15E-06
 Optimization of the real space projectors (new method)

 maximal supplied QI-value         = 16.25
 optimisation between [QCUT,QGAM] = [ 11.38, 22.75] = [ 36.24,144.96] Ry
 Optimized for a Real-space Cutoff    1.27 Angstroem

   l    n(q)    QCUT    max X(q) W(low)/X(q) W(high)/X(q)  e(spline)
   0      9    11.376    12.277    0.53E-04    0.25E-04    0.25E-07
   0      9    11.376    11.419    0.89E-04    0.67E-05    0.35E-07
   1      8    11.376     4.010    0.13E-03    0.11E-03    0.29E-07
   1      8    11.376     6.182    0.94E-04    0.19E-03    0.11E-06
   2      8    11.376    47.177    0.13E-03    0.88E-03    0.24E-06
   2      8    11.376    42.437    0.13E-03    0.86E-03    0.23E-06
  PAW_PBE O 08Apr2002                   :
  PAW_PBE Ti_sv 26Sep2005               :

 POSCAR:  O Ti
  positions in direct lattice
 exchange correlation table for  LEXCH =        8
   RHO(1)=    0.500       N(1)  =     2000
   RHO(2)=  100.500       N(2)  =     4000

 ion  position               nearest neighbor table
   1  0.098  0.083  0.294- 251 1.95 241 1.95 240 1.98
   2  0.402  0.083  0.294- 311 1.95 301 1.95 240 1.98
   3  0.250  0.000  0.253- 240 1.95 290 1.95
   4  0.250  0.000  0.334- 240 1.95 290 1.95 243 1.98
   5  0.348  0.083  0.397- 253 1.95 243 1.95 302 1.98
   6  0.152  0.083  0.397- 253 1.95 243 1.95 242 1.98
   7  0.000  0.000  0.357- 242 1.95 292 1.95 241 1.98
   8  0.000  0.000  0.437- 242 1.95 292 1.95 245 1.98
   9  0.098  0.083  0.500- 255 1.95 245 1.95 244 1.98
  10  0.402  0.083  0.500- 315 1.95 305 1.95 244 1.98
  11  0.250  0.000  0.460- 244 1.95 294 1.95 243 1.98
  12  0.250  0.000  0.540- 244 1.95 294 1.95 247 2.10
  13  0.350  0.083  0.603- 246 1.95 247 1.97 257 1.97
  14  0.150  0.083  0.603- 306 1.95 247 1.97 257 1.97
  15  0.000  1.000  0.563- 306 1.90 356 1.90 245 2.00
  16  0.000  0.000  0.644- 249 1.81 306 2.01 356 2.01
  17  0.094  0.083  0.711- 249 1.94 259 1.94 248 2.04
  18  0.406  0.083  0.711- 309 1.94 319 1.94 248 2.04
  19  0.250  0.333  0.666- 267 1.86 268 2.09 258 2.09
  20  0.250  0.000  0.747- 298 1.83 248 1.83
  21  0.098  0.250  0.294- 251 1.95 261 1.95 250 1.98
  22  0.402  0.250  0.294- 311 1.95 321 1.95 250 1.98
  23  0.250  0.167  0.253- 240 1.95 250 1.95
  24  0.250  0.167  0.334- 240 1.95 250 1.95 253 1.98
  25  0.348  0.250  0.397- 253 1.95 263 1.95 312 1.98
  26  0.152  0.250  0.397- 253 1.95 263 1.95 252 1.98
  27  0.000  0.167  0.357- 242 1.95 252 1.95 251 1.98
  28  0.000  0.167  0.437- 242 1.95 252 1.95 255 1.98
  29  0.098  0.250  0.500- 255 1.95 265 1.95 254 1.98
  30  0.402  0.250  0.500- 315 1.95 325 1.95 254 1.98
  31  0.250  0.167  0.460- 244 1.95 254 1.95 253 1.98
  32  0.250  0.167  0.540- 244 1.95 254 1.95 257 2.10
  33  0.350  0.250  0.603- 256 1.95 257 1.97 267 1.97
  34  0.150  0.250  0.603- 316 1.95 257 1.97 267 1.97
  35  0.000  0.167  0.563- 306 1.90 316 1.90 255 2.00
  36  0.000  0.167  0.644- 259 1.81 306 2.01 316 2.01
  37  0.094  0.250  0.711- 269 1.94 259 1.94 258 2.04
  38  0.406  0.250  0.711- 329 1.94 319 1.94 258 2.04
  39  0.250  0.167  0.666- 257 1.86 248 2.09 258 2.09
  40  0.250  0.167  0.747- 258 1.83 248 1.83
  41  0.098  0.417  0.294- 261 1.95 271 1.95 260 1.98
  42  0.402  0.417  0.294- 321 1.95 331 1.95 260 1.98
  43  0.250  0.333  0.253- 260 1.95 250 1.95
  44  0.250  0.333  0.334- 260 1.95 250 1.95 263 1.98
  45  0.348  0.417  0.397- 263 1.95 273 1.95 322 1.98
  46  0.152  0.417  0.397- 263 1.95 273 1.95 262 1.98
  47  0.000  0.333  0.357- 262 1.95 252 1.95 261 1.98
  48  0.000  0.333  0.437- 262 1.95 252 1.95 265 1.98
  49  0.098  0.417  0.500- 265 1.95 275 1.95 264 1.98
  50  0.402  0.417  0.500- 325 1.95 335 1.95 264 1.98
  51  0.250  0.333  0.460- 264 1.95 254 1.95 263 1.98
  52  0.250  0.333  0.540- 264 1.95 254 1.95 267 2.10
  53  0.350  0.417  0.603- 266 1.95 267 1.97 277 1.97
  54  0.150  0.417  0.603- 326 1.95 267 1.97 277 1.97
  55  0.000  0.333  0.563- 326 1.90 316 1.90 265 2.00
  56  0.000  0.333  0.644- 269 1.81 326 2.01 316 2.01
  57  0.094  0.417  0.711- 269 1.94 279 1.94 268 2.04
  58  0.406  0.417  0.711- 329 1.94 339 1.94 268 2.04
  59  0.250  0.667  0.666- 287 1.86 288 2.09 278 2.09
  60  0.098  0.583  0.294- 281 1.95 271 1.95 270 1.98
[...]
 345  0.500  0.667  0.500-  69 1.95 188 1.95  89 1.95 208 1.95 207 1.98 214 2.00
 346  1.000  0.750  0.601-  94 1.90 114 1.90 212 1.95  93 1.95 115 2.01  95 2.01
 347  0.750  0.667  0.607- 178 1.86 213 1.97 193 1.97 212 1.97 192 1.97 211 2.10
 348  0.750  0.750  0.713- 239 1.83 219 1.83 217 2.04 216 2.04 238 2.09 178 2.09
 349  0.500  0.667  0.701- 215 1.81 196 1.94 216 1.94  77 1.94  97 1.94
 350  0.750  0.917  0.294- 222 1.95 223 1.95 122 1.95 123 1.95 220 1.98 221 1.98
 351  0.500  0.833  0.294- 101 1.95 220 1.95 200 1.95  81 1.95 226 1.98
 352  0.500  0.917  0.397- 226 1.95 126 1.95 227 1.95 127 1.95 104 1.98 225 1.98
 353  0.750  0.833  0.397- 224 1.95 225 1.95 204 1.95 205 1.95 223 1.98 230 1.98
 354  0.750  0.917  0.500- 231 1.95 131 1.95 230 1.95 130 1.95 228 1.98 229 1.98
 355  0.500  0.833  0.500- 109 1.95 228 1.95 208 1.95  89 1.95 227 1.98 234 2.00
 356  1.000  0.917  0.601-  15 1.90 114 1.90 232 1.95 113 1.95  16 2.01 115 2.01
 357  0.750  0.833  0.607- 238 1.86 233 1.97 213 1.97 232 1.97 212 1.97 231 2.10
 358  0.750  0.917  0.713- 239 1.83 139 1.83 237 2.04 236 2.04 238 2.09 218 2.09
 359  0.500  0.833  0.701- 235 1.81 236 1.94 117 1.94 216 1.94  97 1.94

IMPORTANT INFORMATION: All symmetrisations will be switched off!
NOSYMM: (Re-)initialisation of all symmetry stuff for point group C_1.

                                     Primitive cell

  volume of cell :    7299.5562

  direct lattice vectors                    reciprocal lattice vectors
    13.016074892  0.000000000  0.000000000     0.076828077  0.000000000  0.000000000
     0.000000000 17.766556161  0.000000000     0.000000000  0.056285528  0.000000000
     0.000000000  0.000000000 31.565535629     0.000000000  0.000000000  0.031680121

  length of vectors
    13.016074892 17.766556161 31.565535629     0.076828077  0.056285528  0.031680121

  position of ions in fractional coordinates (direct lattice)
     0.097732310  0.083333333  0.293740970
     0.402267690  0.083333333  0.293740970
     0.250000000  0.000000000  0.253440971
     0.250000000  0.000000000  0.334040970
     0.347732310  0.083333333  0.396828679
     0.152267690  0.083333333  0.396828679
     0.000000000  0.000000000  0.356528679
     0.000000000  0.000000000  0.437128678
     0.097732310  0.083333333  0.499916387
     0.402267690  0.083333333  0.499916387
     0.250000000  0.000000000  0.459616387
     0.250000000  0.000000000  0.540216386
     0.349960529  0.083333341  0.603477224
     0.150041709  0.083333347  0.603477396
     0.000000648  0.999999996  0.563182065
     0.000000726  0.000000021  0.643918474
     0.093635235  0.083333301  0.711346779
     0.406365714  0.083333306  0.711346849
     0.250000576  0.333333327  0.665825335
     0.250000236  0.000000056  0.746559029
     0.097732310  0.250000000  0.293740970
     0.402267690  0.250000000  0.293740970
     0.250000000  0.166666667  0.253440971
     0.250000000  0.166666667  0.334040970
     0.347732310  0.250000000  0.396828679
     0.152267690  0.250000000  0.396828679
     0.000000000  0.166666667  0.356528679
     0.000000000  0.166666667  0.437128678
     0.097732310  0.250000000  0.499916387
     0.402267690  0.250000000  0.499916387
     0.250000000  0.166666667  0.459616387
     0.250000000  0.166666667  0.540216386
     0.349960523  0.249999975  0.603477230
     0.150041713  0.249999984  0.603477402
     0.000000659  0.166666679  0.563182052
     0.000000741  0.166666642  0.643918444
     0.093635240  0.250000031  0.711346741
     0.406365665  0.250000043  0.711346807
     0.250000582  0.166666636  0.665825292
     0.250000207  0.166666611  0.746558943
     0.097732310  0.416666667  0.293740970
     0.402267690  0.416666667  0.293740970
     0.250000000  0.333333333  0.253440971
     0.250000000  0.333333333  0.334040970
     0.347732310  0.416666667  0.396828679
     0.152267690  0.416666667  0.396828679
     0.000000000  0.333333333  0.356528679
     0.000000000  0.333333333  0.437128678
     0.097732310  0.416666667  0.499916387
     0.402267690  0.416666667  0.499916387
     0.250000000  0.333333333  0.459616387
     0.250000000  0.333333333  0.540216386
     0.349960529  0.416666675  0.603477224
     0.150041709  0.416666680  0.603477396
     0.000000648  0.333333329  0.563182065
     0.000000726  0.333333354  0.643918474
     0.093635235  0.416666634  0.711346779
     0.406365714  0.416666639  0.711346849
     0.250000576  0.666666660  0.665825335
     0.097732310  0.583333333  0.293740970
[...]
     0.500000000  0.666666667  0.499916387
     0.999995050  0.749999976  0.600833260
     0.749996225  0.666666683  0.606758369
     0.750000648  0.750000323  0.712695331
     0.500000508  0.666666660  0.701346376
     0.750000000  0.916666667  0.293740970
     0.500000000  0.833333333  0.293740970
     0.500000000  0.916666667  0.396828679
     0.750000000  0.833333333  0.396828679
     0.750000000  0.916666667  0.499916387
     0.500000000  0.833333333  0.499916387
     0.999995035  0.916666697  0.600833273
     0.749996236  0.833333361  0.606758429
     0.750000660  0.916666365  0.712695479
     0.500000464  0.833333361  0.701346365

  ion indices of the primitive-cell ions
   primitive index   ion index
                 1           1
                 2           2
                 3           3
                 4           4
                 5           5
                 6           6
                 7           7
                 8           8
                 9           9
                10          10
                11          11
[...]
   0.106E-03 -.293E+00 0.202E+04   -.294E-05 0.294E+00 -.202E+04   0.318E-04 0.345E-01 -.136E+01   -.135E-03 0.360E-05 0.354E-03
   -.641E+02 -.325E+00 0.130E+04   0.682E+02 0.325E+00 -.130E+04   -.360E+01 0.323E-03 0.253E+00   0.130E-03 -.780E-05 -.295E-03
   0.641E+02 -.325E+00 0.130E+04   -.682E+02 0.325E+00 -.130E+04   0.360E+01 0.312E-03 0.253E+00   -.105E-03 -.299E-05 -.346E-03
   -.915E-01 -.344E+00 0.188E+04   0.907E-01 0.345E+00 -.189E+04   0.910E-03 -.570E-03 0.133E+01   -.112E-04 0.178E-04 0.331E-04
   -.318E+00 -.806E+00 0.725E+03   0.315E+00 0.806E+00 -.720E+03   0.415E-02 0.924E-02 -.437E+01   -.556E-04 -.504E-04 -.370E-04
   -.681E+02 -.113E+01 -.139E+02   0.728E+02 0.113E+01 0.136E+02   -.510E+01 0.664E-02 0.454E+00   -.102E-03 -.398E-04 -.608E-03
   0.681E+02 -.113E+01 -.139E+02   -.728E+02 0.113E+01 0.135E+02   0.510E+01 0.666E-02 0.454E+00   0.145E-03 -.495E-04 -.595E-03
   0.872E-04 -.119E+01 0.559E+03   -.121E-03 0.119E+01 -.563E+03   0.173E-04 0.306E-01 0.435E+01   0.178E-04 -.391E-04 -.972E-04
   -.158E-02 -.346E+01 -.620E+03   0.162E-02 0.345E+01 0.626E+03   -.809E-04 0.590E-01 -.665E+01   0.455E-04 -.172E-03 -.209E-03
   -.302E+02 -.609E+01 -.132E+04   0.332E+02 0.606E+01 0.132E+04   -.314E+01 0.642E-01 0.117E+01   0.430E-03 -.611E-04 -.750E-03
   0.303E+02 -.609E+01 -.132E+04   -.333E+02 0.606E+01 0.132E+04   0.315E+01 0.643E-01 0.117E+01   -.265E-03 -.107E-03 -.750E-03
   -.233E+01 -.350E+01 -.732E+03   0.230E+01 0.348E+01 0.726E+03   0.384E-01 0.526E-01 0.640E+01   -.158E-03 -.121E-03 -.113E-03
   -.751E+01 -.901E+01 -.184E+04   0.742E+01 0.894E+01 0.184E+04   0.128E+00 0.144E+00 0.318E+01   -.359E-03 -.355E-03 -.805E-04
   -.825E+02 -.374E+02 -.271E+04   0.882E+02 0.365E+02 0.271E+04   -.464E+01 0.111E+01 -.228E+01   -.148E-02 0.628E-04 0.310E-03
   0.825E+02 -.374E+02 -.271E+04   -.882E+02 0.365E+02 0.271E+04   0.464E+01 0.111E+01 -.228E+01   0.146E-02 0.659E-04 0.165E-03
   -.492E-02 -.258E+02 -.210E+04   0.519E-02 0.248E+02 0.210E+04   -.235E-03 0.146E+01 -.113E+01   0.115E-04 -.128E-02 -.726E-03
   0.117E-02 -.587E+02 -.312E+04   -.130E-02 0.582E+02 0.314E+04   0.154E-03 0.139E+01 -.192E+02   0.845E-05 -.157E-02 0.739E-03
   -.188E+02 0.124E+00 0.262E+04   0.247E+02 -.125E+00 -.262E+04   -.767E+01 -.195E-01 -.192E+01   0.636E-04 -.117E-04 0.429E-03
   0.188E+02 0.124E+00 0.262E+04   -.247E+02 -.125E+00 -.262E+04   0.767E+01 -.196E-01 -.192E+01   0.249E-03 0.248E-04 0.596E-03
   0.163E-03 0.197E-03 0.312E+04   -.209E-06 0.775E-07 -.314E+04   0.238E-04 0.101E-01 0.205E+02   -.187E-03 -.862E-05 0.233E-03
   0.120E-03 -.700E-03 0.202E+04   -.292E-05 0.116E-06 -.202E+04   0.227E-04 -.344E-01 -.137E+01   -.140E-03 0.592E-05 0.308E-03
   -.641E+02 0.324E+00 0.130E+04   0.682E+02 -.325E+00 -.130E+04   -.363E+01 0.154E-01 0.266E+00   0.133E-03 0.196E-04 -.299E-03
   0.641E+02 0.324E+00 0.130E+04   -.682E+02 -.325E+00 -.130E+04   0.363E+01 0.154E-01 0.266E+00   -.113E-03 0.175E-04 -.347E-03
   -.108E+00 -.605E-03 0.188E+04   0.107E+00 0.132E-06 -.189E+04   0.183E-02 0.793E-04 0.133E+01   -.304E-04 0.144E-04 -.702E-05
   -.394E+00 0.159E-03 0.724E+03   0.393E+00 0.186E-06 -.720E+03   0.277E-02 -.827E-02 -.436E+01   -.651E-04 0.154E-04 -.614E-04
   -.681E+02 0.113E+01 -.139E+02   0.728E+02 -.113E+01 0.136E+02   -.510E+01 -.538E-01 0.443E+00   -.105E-03 0.732E-04 -.601E-03
   0.681E+02 0.113E+01 -.139E+02   -.728E+02 -.113E+01 0.135E+02   0.510E+01 -.538E-01 0.443E+00   0.140E-03 0.742E-04 -.584E-03
   0.821E-04 -.213E-03 0.558E+03   -.121E-03 0.304E-07 -.563E+03   0.185E-04 -.233E-01 0.436E+01   0.253E-04 0.113E-04 -.140E-03
   -.156E-02 -.339E-03 -.622E+03   0.163E-02 -.187E-04 0.629E+03   -.129E-03 -.406E-01 -.655E+01   0.725E-04 0.225E-04 -.178E-03
   -.302E+02 0.609E+01 -.132E+04   0.332E+02 -.606E+01 0.132E+04   -.309E+01 -.908E-01 0.112E+01   0.361E-03 0.192E-03 -.693E-03
   0.303E+02 0.609E+01 -.132E+04   -.333E+02 -.606E+01 0.132E+04   0.310E+01 -.908E-01 0.112E+01   -.179E-03 0.222E-03 -.704E-03
   -.342E+01 0.630E-04 -.735E+03   0.339E+01 -.558E-04 0.729E+03   0.394E-01 0.105E-02 0.643E+01   -.180E-03 0.280E-04 -.201E-03
   -.141E+02 -.420E-03 -.185E+04   0.140E+02 0.235E-04 0.185E+04   0.130E+00 -.362E-01 0.328E+01   -.494E-03 0.328E-04 -.124E-03
   -.825E+02 0.374E+02 -.271E+04   0.882E+02 -.365E+02 0.271E+04   -.475E+01 -.111E+01 -.228E+01   -.120E-02 -.208E-04 0.323E-03
   0.825E+02 0.374E+02 -.271E+04   -.882E+02 -.365E+02 0.271E+04   0.475E+01 -.111E+01 -.228E+01   0.123E-02 0.569E-04 0.158E-03
   -.489E-02 0.903E+01 -.208E+04   0.524E-02 -.883E+01 0.208E+04   -.341E-03 -.300E+00 -.176E+01   0.544E-04 0.377E-03 -.128E-03
   -.188E+02 0.247E+00 0.262E+04   0.247E+02 -.247E+00 -.262E+04   -.767E+01 0.207E-01 -.192E+01   0.105E-03 0.594E-05 0.446E-03
[...]
   -.177E+01 0.402E+01 -.258E+04   0.173E+01 -.399E+01 0.258E+04   0.119E-01 -.894E-02 0.797E+00   -.161E-03 0.818E-03 -.213E-02
   -.974E-02 0.593E+01 -.267E+04   0.939E-02 -.590E+01 0.267E+04   0.106E-02 -.161E-02 -.106E+01   -.372E-03 0.243E-02 -.479E-02
   -.166E-03 0.504E+01 -.516E+04   0.295E-03 -.500E+01 0.516E+04   -.375E-04 -.779E-02 -.161E+01   -.170E-03 0.128E-02 -.237E-02
   0.603E+01 0.147E+02 -.517E+04   -.594E+01 -.145E+02 0.517E+04   -.250E-01 -.484E-01 0.291E+01   0.737E-03 0.263E-02 -.118E-02
   -.204E-02 -.230E+00 0.515E+04   -.186E-05 0.233E+00 -.516E+04   -.604E-03 0.615E-02 0.111E+01   0.279E-02 -.106E-02 0.404E-02
   0.508E-01 0.133E-02 0.537E+04   -.501E-01 -.168E-06 -.536E+04   -.224E-03 -.130E-01 -.565E+01   0.643E-05 0.480E-04 0.132E-02
   0.175E+00 -.568E+00 0.260E+04   -.172E+00 0.568E+00 -.260E+04   -.934E-03 0.392E-01 -.139E+00   0.268E-03 -.422E-03 -.263E-02
   -.310E-03 -.242E-03 0.259E+04   -.407E-04 -.280E-06 -.260E+04   -.114E-03 0.165E-01 0.377E+00   0.479E-03 0.229E-04 -.285E-02
   0.534E-03 -.140E+01 -.346E+02   -.629E-03 0.140E+01 0.354E+02   -.444E-04 -.207E-01 -.233E+00   0.130E-03 -.595E-03 -.403E-02
   0.536E+00 0.131E-02 -.165E+02   -.528E+00 -.662E-05 0.151E+02   -.245E-02 0.123E-01 0.575E+00   0.309E-03 0.702E-04 -.342E-02
   -.177E+01 -.402E+01 -.258E+04   0.173E+01 0.399E+01 0.258E+04   0.119E-01 0.190E-01 0.817E+00   -.997E-04 -.822E-03 -.221E-02
   -.100E-01 0.925E-03 -.267E+04   0.936E-02 -.103E-03 0.267E+04   0.892E-03 -.106E-01 -.106E+01   0.773E-04 0.286E-04 -.538E-02
   -.280E-03 -.504E+01 -.516E+04   0.122E-03 0.500E+01 0.516E+04   -.119E-03 -.477E-02 -.154E+01   0.229E-03 -.149E-02 -.233E-02
   0.239E+01 0.240E-02 -.517E+04   -.234E+01 -.226E-03 0.516E+04   -.152E-01 -.712E-02 0.290E+01   0.422E-03 -.136E-03 -.102E-02
   -.601E-01 0.315E-03 0.781E+02   0.884E-13 -.744E-11 0.819E-11   0.624E-01 0.112E-02 -.778E+02   0.513E-02 0.201E-03 -.255E+00

 POSITION                                       TOTAL-FORCE (eV/Angst)
      1.27209      1.48055      9.27209        -1.760111      0.019515     -0.855794
      5.23595      1.48055      9.27209         1.760108      0.019495     -0.855838
      3.25402      0.00000      8.00000        -0.000017      0.000102      1.837681
      3.25402      0.00000     10.54418        -0.000023      0.000185      1.831240
      4.52611      1.48055     12.52611         0.432504     -0.014274      0.104872
      1.98193      1.48055     12.52611        -0.432530     -0.014264      0.104841
      0.00000      0.00000     11.25402         0.000398     -0.000090     -1.265881
      0.00000      0.00000     13.79820         0.000752      0.000139      0.003432
      1.27209      1.48055     15.78013        -0.372605      0.052259      0.098011
      5.23595      1.48055     15.78013         0.372575      0.052266      0.098013
      3.25402      0.00000     14.50804        -0.000016      0.007161     -0.116968
      3.25402      0.00000     17.05222         0.000000      0.011137      0.243667
      4.55511      1.48055     19.04908        -0.034254      0.088386      0.013188
      1.95295      1.48055     19.04909         0.034292      0.088387      0.013197
      0.00001     17.76656     17.77714         0.007152      0.018106     -0.015664
      0.00001      0.00000     20.32563         0.008770      0.020322      0.147809
      1.21876      1.48055     22.45404         0.140454      0.096583      0.160861
      5.28929      1.48055     22.45404        -0.140420      0.096575      0.160881
      3.25403      5.92219     21.01713         0.000006     -0.016248      1.351448
      3.25402      0.00000     23.56554         0.000015      0.217797      0.246785
      1.27209      4.44164      9.27209        -1.774193     -0.000258     -0.796711
      5.23595      4.44164      9.27209         1.774224     -0.000216     -0.796736
      3.25402      2.96109      8.00000        -0.000018     -0.010272      1.785973
      3.25402      2.96109     10.54418        -0.000021      0.035175      1.761126
      4.52611      4.44164     12.52611         0.466561      0.000153      0.092262
      1.98193      4.44164     12.52611        -0.466569      0.000159      0.092240
      0.00000      2.96109     11.25402         0.000033      0.000270     -1.363255
      0.00000      2.96109     13.79820         0.000750      0.008513      0.001124
      1.27209      4.44164     15.78013        -0.368861      0.002992      0.112752
      5.23595      4.44164     15.78013         0.368840      0.003007      0.112742
      3.25402      2.96109     14.50804        -0.000019      0.025477     -0.055120
      3.25402      2.96109     17.05222        -0.000010      0.051206      0.216457
      4.55511      4.44164     19.04908        -0.091789      0.030767      0.090391
      1.95295      4.44164     19.04909         0.091840      0.030785      0.090397
      0.00001      2.96109     17.77714         0.013453      0.032292      0.068747
      0.00001      2.96109     20.32563         0.031043      0.073256      0.323438
      1.21876      4.44164     22.45404         1.043107      0.245627      0.553897
      5.28929      4.44164     22.45404        -1.043046      0.245619      0.553920
      3.25403      2.96109     21.01713         0.000016      0.442022      0.713399
      3.25402      2.96109     23.56553         0.000011      0.812536      0.647154
      1.27209      7.40273      9.27209        -1.759940     -0.019867     -0.855837
      5.23595      7.40273      9.27209         1.759949     -0.019897     -0.855853
      3.25402      5.92219      8.00000        -0.000020      0.010261      1.785822
      3.25402      5.92219     10.54418        -0.000021     -0.035129      1.760261
      4.52611      7.40273     12.52611         0.432251      0.014519      0.104992
      1.98193      7.40273     12.52611        -0.432265      0.014512      0.104970
      0.00000      5.92219     11.25402         0.000631     -0.000516     -1.363390
      0.00000      5.92219     13.79820         0.001196     -0.008104      0.003579
      1.27209      7.40273     15.78013        -0.370521     -0.050083      0.101312
      5.23595      7.40273     15.78013         0.370501     -0.050072      0.101314
      3.25402      5.92219     14.50804        -0.000016     -0.023477     -0.057537
      3.25402      5.92219     17.05222        -0.000003     -0.040981      0.267101
      4.55511      7.40273     19.04908        -0.043724     -0.057719      0.036241
      1.95295      7.40273     19.04909         0.043778     -0.057739      0.036258
      0.00001      5.92219     17.77714         0.007484      0.001081      0.076905
      0.00001      5.92219     20.32563         0.012073     -0.036572      0.398699
      1.21876      7.40273     22.45404         0.935541     -0.243044      0.560543
      5.28929      7.40273     22.45404        -0.935558     -0.243089      0.560571
      3.25403     11.84437     21.01713         0.000039     -0.095741      0.202284
      1.27209     10.36382      9.27209        -1.760116      0.020720     -0.855803
[...]
      6.50804     11.84437     15.78013         0.006913     -0.005257     -0.834300
     13.01601     13.32492     18.96562        -0.031004      0.018764     -0.131688
      9.76201     11.84437     19.15265         0.000313      0.037096     -0.143922
      9.76206     13.32492     22.49661        -0.000100      0.037120     -0.122023
      6.50804     11.84437     22.13837         0.059547      0.135286     -0.094524
      9.76206     16.28601      9.27209         0.000118      0.008439     -3.578301
      6.50804     14.80546      9.27209         0.000477     -0.011654      2.694826
      6.50804     16.28601     12.52611         0.002349      0.038519      0.457864
      9.76206     14.80546     12.52611        -0.000007      0.016291     -0.792137
      9.76206     16.28601     15.78013        -0.000031     -0.023744      0.555613
      6.50804     14.80546     15.78013         0.005728      0.013665     -0.828237
     13.01601     16.28601     18.96562        -0.031021     -0.006061     -0.114349
      9.76201     14.80546     19.15265         0.000305     -0.009783     -0.129004
      9.76206     16.28600     22.49661        -0.000068     -0.048988     -0.060757
      6.50804     14.80546     22.13837         0.029582     -0.005086     -0.068217
    total drift:                                0.007470      0.001632      0.029159

  FREE ENERGIE OF THE ION-ELECTRON SYSTEM (eV)
  free  energy   TOTEN  =     -3182.62330268 eV

  energy  without entropy=    -3182.58531903  energy(sigma->0) =    -3182.60431086

 total charge

# of ion       s       p       d       tot
    1        1.577   3.484   0.000   5.061
    2        1.577   3.484   0.000   5.061
    3        1.584   3.372   0.000   4.956
    4        1.575   3.506   0.000   5.080
    5        1.574   3.501   0.000   5.076
    6        1.574   3.501   0.000   5.076
    7        1.573   3.490   0.000   5.063
    8        1.574   3.498   0.000   5.072
    9        1.575   3.499   0.000   5.074
   10        1.575   3.499   0.000   5.074
   11        1.575   3.503   0.000   5.078
   12        1.573   3.478   0.000   5.052
   13        1.573   3.497   0.000   5.070
   14        1.573   3.497   0.000   5.070
   15        1.578   3.519   0.000   5.097
   16        1.576   3.516   0.000   5.092
   17        1.572   3.493   0.000   5.065
   18        1.572   3.493   0.000   5.065
   19        1.572   3.469   0.000   5.041
   20        1.592   3.443   0.000   5.035
   21        1.577   3.484   0.000   5.061
   22        1.577   3.484   0.000   5.061
   23        1.584   3.372   0.000   4.956
   24        1.575   3.506   0.000   5.081
   25        1.574   3.501   0.000   5.076
   26        1.574   3.501   0.000   5.076
   27        1.573   3.490   0.000   5.063
   28        1.575   3.498   0.000   5.072
   29        1.575   3.499   0.000   5.075
   30        1.575   3.499   0.000   5.075
   31        1.575   3.503   0.000   5.077
   32        1.573   3.478   0.000   5.051
   33        1.573   3.497   0.000   5.071
   34        1.573   3.497   0.000   5.071
   35        1.578   3.519   0.000   5.097
   36        1.576   3.516   0.000   5.092
   37        1.572   3.495   0.000   5.066
   38        1.572   3.495   0.000   5.066
   39        1.574   3.463   0.000   5.037
   40        1.591   3.445   0.000   5.035
   41        1.577   3.484   0.000   5.061
   42        1.577   3.484   0.000   5.061
   43        1.584   3.372   0.000   4.956
   44        1.575   3.506   0.000   5.081
   45        1.574   3.501   0.000   5.076
   46        1.574   3.501   0.000   5.076
   47        1.573   3.490   0.000   5.063
   48        1.575   3.498   0.000   5.072
   49        1.575   3.499   0.000   5.074
   50        1.575   3.499   0.000   5.074
   51        1.575   3.503   0.000   5.077
   52        1.573   3.478   0.000   5.051
   53        1.573   3.497   0.000   5.071
   54        1.573   3.497   0.000   5.071
   55        1.578   3.519   0.000   5.097
   56        1.576   3.516   0.000   5.092
   57        1.572   3.494   0.000   5.066
   58        1.572   3.494   0.000   5.066
   59        1.572   3.474   0.000   5.047
   60        1.577   3.484   0.000   5.061
[...]
  345        2.219   6.294   1.713  10.226
  346        2.225   6.303   1.739  10.268
  347        2.220   6.289   1.718  10.227
  348        2.220   6.285   1.784  10.289
  349        2.231   6.281   1.811  10.322
  350        2.218   6.296   1.754  10.268
  351        2.201   6.245   1.732  10.178
  352        2.221   6.297   1.711  10.229
  353        2.222   6.299   1.715  10.235
  354        2.221   6.298   1.717  10.236
  355        2.219   6.294   1.713  10.226
  356        2.225   6.303   1.739  10.268
  357        2.220   6.289   1.718  10.227
  358        2.220   6.285   1.783  10.289
  359        2.231   6.281   1.810  10.322
tot        642.9521587.971 208.7312439.653