 vasp.6.2.0 18Jan21 (build Mar 03 2021 13:27:41) complex

 executed on             LinuxIFC date 2021.06.30  01:59:43

 INCAR:
   SYSTEM = TiO2-rutile
   ISMEAR = 0
   SIGMA = 0.05
   EDIFF = 1E-5
   ALGO = Fast
   ISTART = 1
   ISYM = 0
   IBRION = -1
   NSW = 0
   EDIFFG = -0.01
   ENCUT = 500
   PREC = Accurate
   LASPH = .TRUE.
   LREAL = Auto
   ISPIN = 1
   NELM = 500
   NELMIN = 4
   NCORE = 20
   LWAVE = .FALSE.
   LCHARG = .FALSE.
   LORBIT = 11

 POTCAR:    PAW_PBE Ti_sv 26Sep2005
 POTCAR:    PAW_PBE O 08Apr2002
|           W    W    AA    RRRRR   N    N  II  N    N   GGGG   !!!           |
|           W    W   A  A   R    R  NN   N  II  NN   N  G    G  !!!           |
|           W    W  A    A  R    R  N N  N  II  N N  N  G       !!!           |
|           W WW W  AAAAAA  RRRRR   N  N N  II  N  N N  G  GGG   !            |
|           WW  WW  A    A  R   R   N   NN  II  N   NN  G    G                |
|           W    W  A    A  R    R  N    N  II  N    N   GGGG   !!!           |
|     For optimal performance we recommend to set                             |
|       NCORE = 2 up to number-of-cores-per-socket                            |
|     This setting can greatly improve the performance of VASP for DFT.       |
|     The default, NCORE=1 might be grossly inefficient on modern             |
|     multi-core architectures or massively parallel machines. Do your        |
|     Unfortunately you need to use the default for GW and RPA                |
|     calculations (for HF NCORE is supported but not extensively tested      |
|     yet).                                                                   |

   TITEL  = PAW_PBE Ti_sv 26Sep2005
   POMASS =   47.880; ZVAL   =   12.000    mass and valenz
   ENMAX  =  274.610; ENMIN  =  205.957 eV

   TITEL  = PAW_PBE O 08Apr2002
   POMASS =   16.000; ZVAL   =    6.000    mass and valenz
   ENMAX  =  400.000; ENMIN  =  300.000 eV

 Optimization of the real space projectors (new method)

 maximal supplied QI-value         = 16.25
 optimisation between [QCUT,QGAM] = [ 11.38, 22.75] = [ 36.24,144.96] Ry
 Optimized for a Real-space Cutoff    1.27 Angstroem

   l    n(q)    QCUT    max X(q) W(low)/X(q) W(high)/X(q)  e(spline)
   0      9    11.376    12.277    0.53E-04    0.25E-04    0.25E-07
   0      9    11.376    11.419    0.89E-04    0.67E-05    0.35E-07
   1      8    11.376     4.010    0.13E-03    0.11E-03    0.29E-07
   1      8    11.376     6.182    0.94E-04    0.19E-03    0.11E-06
   2      8    11.376    47.177    0.13E-03    0.88E-03    0.24E-06
   2      8    11.376    42.437    0.13E-03    0.86E-03    0.23E-06
 Optimization of the real space projectors (new method)

 maximal supplied QI-value         = 24.76
 optimisation between [QCUT,QGAM] = [ 11.39, 22.77] = [ 36.31,145.25] Ry
 Optimized for a Real-space Cutoff    1.10 Angstroem

   l    n(q)    QCUT    max X(q) W(low)/X(q) W(high)/X(q)  e(spline)
   0      7    11.387    20.381    0.22E-03    0.48E-03    0.18E-06
   0      7    11.387    15.268    0.22E-03    0.52E-03    0.19E-06
   1      7    11.387     5.964    0.22E-03    0.73E-03    0.24E-06
   1      7    11.387     5.382    0.19E-03    0.60E-03    0.21E-06
  PAW_PBE Ti_sv 26Sep2005               :
  PAW_PBE O 08Apr2002                   :

 POSCAR: Ti  O
  positions in direct lattice
  velocities in cartesian coordinates
 exchange correlation table for  LEXCH =        8
   RHO(1)=    0.500       N(1)  =     2000
   RHO(2)=  100.500       N(2)  =     4000

 ion  position               nearest neighbor table
   1  0.500  0.125  0.286-  84 1.96 104 1.96 103 1.96  83 1.96  81 2.00  82 2.00
   2  0.750  0.000  0.286-  82 1.96 141 1.96 160 1.96 220 1.96  87 2.00
   3  0.250  0.125  0.393-  88 1.96 108 1.96 166 1.96 186 1.96  86 2.00 164 2.00
   4  0.500  0.000  0.393-  85 1.96  86 1.96 144 1.96 145 1.96  91 2.00  84 2.00
   5  0.500  0.125  0.500-  91 1.96  92 1.96 111 1.96 112 1.96  89 2.00  90 2.00
   6  0.750  0.000  0.500-  90 1.96 149 1.96 168 1.96 228 1.96 167 2.00 174 2.03
   7  0.752  0.125  0.605- 174 1.91 194 1.91 173 1.94  93 2.02 175 2.04 195 2.04
   8  0.500  1.000  0.615-  99 1.88 152 1.98  93 1.98 153 1.98  94 1.98  92 2.25
   9  0.500  0.122  0.725- 100 1.83 120 1.83  98 2.05  97 2.05  99 2.10 119 2.16  19 2.82  39 2.91

  10  0.748  1.000  0.710- 175 1.81 157 1.95  98 1.95 236 1.97 176 1.97
  11  0.500  0.375  0.286- 104 1.96 124 1.96 123 1.96 103 1.96 101 2.00 102 2.00
  12  0.750  0.250  0.286-  82 1.96 102 1.96 160 1.96 180 1.96 107 2.00
  13  0.250  0.375  0.393- 108 1.96 128 1.96 186 1.96 206 1.96 106 2.00 184 2.00
  14  0.500  0.250  0.393-  85 1.96  86 1.96 105 1.96 106 1.96 111 2.00 104 2.00
  15  0.500  0.375  0.500- 111 1.96 112 1.96 131 1.96 132 1.96 109 2.00 110 2.00
  16  0.750  0.250  0.500-  90 1.96 110 1.96 168 1.96 188 1.96 187 2.00 194 2.03
  17  0.751  0.375  0.605- 194 1.91 214 1.91 193 1.95 113 2.02 215 2.03 195 2.04
  18  0.500  0.247  0.605- 112 1.93  93 1.94  94 1.94 113 2.00 114 2.00 119 2.09
  19  0.500  0.357  0.710- 119 1.77 120 1.86 139 1.95 117 2.04 118 2.04   9 2.82
  20  0.751  0.250  0.710- 195 1.81 196 1.93 176 1.93  98 1.98 118 2.02
  21  0.500  0.625  0.286- 124 1.96 143 1.96 142 1.96 123 1.96 121 2.00 122 2.00
  22  0.750  0.500  0.286- 102 1.96 122 1.96 180 1.96 200 1.96 127 2.00
  23  0.250  0.625  0.393- 128 1.96 147 1.96 206 1.96 226 1.96 126 2.00 204 2.00
  24  0.500  0.500  0.393- 105 1.96 106 1.96 125 1.96 126 1.96 131 2.00 124 2.00
  25  0.500  0.625  0.500- 131 1.96 132 1.96 150 1.96 151 1.96 129 2.00 130 2.00
  26  0.750  0.500  0.500- 110 1.96 130 1.96 188 1.96 208 1.96 207 2.00 214 2.03
  27  0.751  0.625  0.605- 234 1.91 214 1.91 213 1.95 133 2.02 215 2.03 235 2.04
  28  0.500  0.500  0.607- 114 1.96 113 1.96 134 1.96 133 1.96 132 2.01 139 2.20
  29  0.500  0.643  0.710- 158 1.77 159 1.86 139 1.95 137 2.04 138 2.04  39 2.82
  30  0.746  0.500  0.709- 215 1.81 138 1.95 118 1.95 216 1.97 196 1.97
  31  0.500  0.875  0.286-  84 1.96 143 1.96 142 1.96  83 1.96 140 2.00 141 2.00
  32  0.750  0.750  0.286- 122 1.96 141 1.96 200 1.96 220 1.96 146 2.00
  33  0.250  0.875  0.393-  88 1.96 147 1.96 166 1.96 226 1.96 224 2.00 145 2.00
  34  0.500  0.750  0.393- 125 1.96 126 1.96 144 1.96 145 1.96 150 2.00 143 2.00
  35  0.500  0.875  0.500-  91 1.96  92 1.96 150 1.96 151 1.96 148 2.00 149 2.00
  36  0.750  0.750  0.500- 130 1.96 149 1.96 208 1.96 228 1.96 227 2.00 234 2.03
  37  0.752  0.875  0.605- 174 1.91 234 1.91 233 1.94 152 2.02 175 2.04 235 2.04
  38  0.500  0.753  0.605- 151 1.93 152 1.94 153 1.94 133 2.00 134 2.00 158 2.09
  39  0.500  0.877  0.726- 100 1.83 159 1.83 156 2.05 157 2.05  99 2.10 158 2.16  29 2.82   9 2.91

  40  0.751  0.750  0.710- 235 1.81 236 1.93 216 1.93 157 1.98 138 2.02
  41  0.000  0.125  0.286- 163 1.96 183 1.96 182 1.96 162 1.96 160 2.00 161 2.00
  42  0.250  0.000  0.286-  81 1.96 140 1.96 161 1.96 221 1.96 166 2.00
  43  0.750  0.125  0.393- 167 1.96 187 1.96  87 1.96 107 1.96  85 2.00 165 2.00
  44  0.000  0.000  0.393- 164 1.96 165 1.96 224 1.96 225 1.96 170 2.00 163 2.00
  45  0.000  0.125  0.500- 170 1.96 171 1.96 190 1.96 191 1.96 168 2.00 169 2.00
  46  0.250  0.000  0.500-  89 1.96 148 1.96 169 1.96 229 1.96  88 2.00  95 2.03
  47  0.248  0.125  0.605-  95 1.91 115 1.91 172 1.94  94 2.02  96 2.04 116 2.04
  48  0.000  0.000  0.611- 178 1.88 172 1.99 232 1.99 173 1.99 233 1.99 171 2.12
  49  0.000  0.125  0.721- 179 1.83 199 1.84 177 2.06 176 2.06 178 2.10 198 2.10
  50  0.252  0.000  0.710-  96 1.81  97 1.95 156 1.95 177 1.97 237 1.97
  51  0.000  0.375  0.286- 183 1.96 203 1.96 202 1.96 182 1.96 180 2.00 181 2.00
  52  0.250  0.250  0.286-  81 1.96 101 1.96 161 1.96 181 1.96 186 2.00
  53  0.750  0.375  0.393- 187 1.96 207 1.96 107 1.96 127 1.96 105 2.00 185 2.00
  54  0.000  0.250  0.393- 164 1.96 165 1.96 184 1.96 185 1.96 190 2.00 183 2.00
  55  0.000  0.375  0.500- 190 1.96 191 1.96 210 1.96 211 1.96 188 2.00 189 2.00
  56  0.250  0.250  0.500-  89 1.96 109 1.96 169 1.96 189 1.96 108 2.00 115 2.03
  57  0.249  0.375  0.605- 115 1.91 135 1.91 192 1.95 114 2.02 136 2.03 116 2.04
  58  0.000  0.250  0.611- 198 1.88 192 1.99 193 1.99 172 1.99 173 1.99 191 2.12
  59  0.000  0.375  0.721- 199 1.83 219 1.83 197 2.09 196 2.09 218 2.10 198 2.10
  60  0.249  0.250  0.710- 116 1.81 177 1.93 197 1.93  97 1.98 117 2.02
  61  0.000  0.625  0.286- 203 1.96 223 1.96 222 1.96 202 1.96 200 2.00 201 2.00
  62  0.250  0.500  0.286- 101 1.96 121 1.96 181 1.96 201 1.96 206 2.00
  63  0.750  0.625  0.393- 207 1.96 227 1.96 127 1.96 146 1.96 125 2.00 205 2.00
  64  0.000  0.500  0.393- 184 1.96 185 1.96 204 1.96 205 1.96 210 2.00 203 2.00
  65  0.000  0.625  0.500- 210 1.96 211 1.96 230 1.96 231 1.96 208 2.00 209 2.00
  66  0.250  0.500  0.500- 109 1.96 129 1.96 189 1.96 209 1.96 128 2.00 135 2.03
  67  0.249  0.625  0.605- 154 1.91 135 1.91 212 1.95 134 2.02 136 2.03 155 2.04
  68  1.000  0.500  0.611- 218 1.89 193 1.99 213 1.99 192 1.99 212 1.99 211 2.12
  69  1.000  0.625  0.721- 239 1.83 219 1.83 216 2.09 217 2.09 218 2.10 238 2.10
  70  0.254  0.500  0.709- 136 1.81 117 1.95 137 1.95 197 1.97 217 1.97
  71  0.000  0.875  0.286- 163 1.96 223 1.96 222 1.96 162 1.96 220 2.00 221 2.00
  72  0.250  0.750  0.286- 121 1.96 140 1.96 201 1.96 221 1.96 226 2.00
  73  0.750  0.875  0.393- 167 1.96 227 1.96  87 1.96 146 1.96 225 2.00 144 2.00
  74  0.000  0.750  0.393- 204 1.96 205 1.96 224 1.96 225 1.96 230 2.00 223 2.00
  75  0.000  0.875  0.500- 170 1.96 171 1.96 230 1.96 231 1.96 228 2.00 229 2.00
  76  0.250  0.750  0.500- 129 1.96 148 1.96 209 1.96 229 1.96 147 2.00 154 2.03
  77  0.248  0.875  0.605-  95 1.91 154 1.91 232 1.94 153 2.02  96 2.04 155 2.04
  78  0.000  0.750  0.611- 238 1.88 212 1.99 213 1.99 232 1.99 233 1.99 231 2.12
  79  0.000  0.875  0.721- 179 1.83 239 1.84 237 2.06 236 2.06 178 2.10 238 2.10
  80  0.249  0.750  0.710- 155 1.81 237 1.93 217 1.93 156 1.98 137 2.02
  81  0.348  0.125  0.286-  42 1.96  52 1.96   1 2.00
  82  0.652  0.125  0.286-   2 1.96  12 1.96   1 2.00
  83  0.500  0.000  0.244-   1 1.96  31 1.96
  84  0.500  0.000  0.328-   1 1.96  31 1.96   4 2.00
  85  0.598  0.125  0.393-   4 1.96  14 1.96  43 2.00
  86  0.402  0.125  0.393-   4 1.96  14 1.96   3 2.00
  87  0.750  0.000  0.351-  43 1.96  73 1.96   2 2.00
  88  0.250  0.000  0.435-   3 1.96  33 1.96  46 2.00
  89  0.348  0.125  0.500-  46 1.96  56 1.96   5 2.00
  90  0.652  0.125  0.500-   6 1.96  16 1.96   5 2.00
  91  0.500  0.000  0.458-   5 1.96  35 1.96   4 2.00
  92  0.500  0.000  0.542-   5 1.96  35 1.96   8 2.25
  93  0.598  0.125  0.608-  18 1.94   8 1.98   7 2.02
  94  0.402  0.125  0.608-  18 1.94   8 1.98  47 2.02
  95  0.251  1.000  0.566-  77 1.91  47 1.91  46 2.03
  96  0.252  0.000  0.651-  50 1.81  77 2.04  47 2.04
  97  0.344  0.125  0.722-  50 1.95  60 1.98   9 2.05
  98  0.656  0.125  0.722-  10 1.95  20 1.98   9 2.05
  99  0.500  1.000  0.676-   8 1.88   9 2.10  39 2.10
[...]
 225  0.902  0.875  0.393-  44 1.96  74 1.96  73 2.00
 226  0.250  0.750  0.351-  23 1.96  33 1.96  72 2.00
 227  0.750  0.750  0.435-  63 1.96  73 1.96  36 2.00
 228  0.848  0.875  0.500-   6 1.96  36 1.96  75 2.00
[...]
   -.828E-02 0.856E-03 0.245E+04   0.866E-02 -.903E-03 -.246E+04   -.296E-04 0.497E-04 0.648E+00   -.227E-03 0.343E-05 -.161E-03
   -.342E-01 0.163E+01 -.344E+02   0.346E-01 -.176E+01 0.332E+02   -.623E-04 0.227E-01 0.313E+00   -.321E-03 0.323E-04 -.546E-03
   -.626E+01 0.216E-02 -.347E+02   0.663E+01 -.248E-02 0.331E+02   -.100E+00 0.485E-04 0.677E+00   -.358E-04 0.636E-04 -.494E-03
   0.140E+02 0.448E+01 -.248E+04   -.137E+02 -.446E+01 0.248E+04   -.262E+00 -.270E-01 0.101E+01   0.753E-04 -.275E-03 -.276E-03
   -.439E-01 0.545E-02 -.257E+04   0.438E-01 -.841E-02 0.256E+04   0.111E-02 0.270E-02 0.103E+01   -.290E-03 0.301E-04 -.351E-03
   0.448E-01 0.292E+03 -.485E+04   -.475E-01 -.290E+03 0.485E+04   0.331E-02 -.189E+01 0.122E+01   -.265E-03 -.414E-03 -.421E-04
   0.649E+02 0.326E-01 -.494E+04   -.650E+02 -.312E-01 0.494E+04   0.737E-01 -.930E-03 0.277E+01   -.910E-04 0.537E-04 0.125E-03
   -.215E-02 -.242E-01 0.488E+04   0.230E-02 0.421E-01 -.488E+04   0.220E-05 -.193E-01 0.110E+01   -.521E-05 0.119E-04 0.450E-03
   -.162E+00 -.256E-01 0.509E+04   0.188E+00 0.279E-01 -.508E+04   -.714E-02 -.484E-03 -.556E+01   -.420E-04 -.324E-04 0.532E-03
   0.759E+00 -.240E+00 0.246E+04   -.862E+00 0.246E+00 -.246E+04   0.291E-01 -.782E-02 -.749E-01   0.121E-04 -.556E-04 0.251E-04
   -.107E-01 -.563E+00 0.245E+04   0.109E-01 0.598E+00 -.246E+04   0.278E-05 -.480E-02 0.614E+00   -.153E-03 -.516E-05 -.326E-04
   -.614E-01 -.103E+02 -.424E+02   0.616E-01 0.120E+02 0.422E+02   0.100E-04 -.355E+00 0.784E-01   -.267E-03 -.244E-03 -.628E-03
   -.604E+01 -.761E+00 -.341E+02   0.632E+01 0.886E+00 0.325E+02   -.760E-01 -.278E-01 0.712E+00   -.521E-04 -.209E-03 -.518E-03
   0.124E+02 0.463E+01 -.247E+04   -.121E+02 -.464E+01 0.247E+04   -.298E+00 0.790E-02 0.104E+01   -.688E-04 -.395E-03 0.424E-04
   -.226E-01 0.260E+02 -.246E+04   0.242E-01 -.256E+02 0.246E+04   -.280E-02 -.419E+00 0.667E+00   -.209E-03 0.216E-04 -.228E-03
   0.173E+00 0.376E+02 -.497E+04   -.174E+00 -.369E+02 0.498E+04   0.108E-02 -.674E+00 -.159E+01   -.132E-03 0.147E-03 -.278E-03
   0.304E+02 0.402E+02 -.492E+04   -.299E+02 -.400E+02 0.491E+04   -.479E+00 -.175E+00 0.276E+01   -.928E-04 -.225E-03 0.212E-03
   0.198E-02 0.363E-02 0.488E+04   -.228E-02 -.297E-02 -.488E+04   0.355E-05 0.151E-01 0.109E+01   0.827E-04 -.222E-04 0.367E-03
   0.140E+00 -.112E-03 0.509E+04   -.164E+00 0.174E-03 -.508E+04   0.669E-02 0.302E-04 -.559E+01   0.121E-04 0.495E-04 0.679E-03
   -.758E+00 0.242E+00 0.246E+04   0.861E+00 -.248E+00 -.246E+04   -.290E-01 0.786E-02 -.748E-01   -.179E-04 0.108E-04 -.290E-03
   0.123E-01 -.905E-03 0.245E+04   -.125E-01 0.903E-03 -.245E+04   0.914E-04 -.352E-04 0.453E+00   0.118E-03 -.162E-04 -.154E-04
   0.517E-01 -.407E+00 -.475E+02   -.519E-01 0.412E+00 0.480E+02   0.728E-04 0.471E-02 -.125E+00   0.128E-03 0.676E-05 -.330E-03
   0.144E+01 -.830E-02 -.353E+02   -.159E+01 0.810E-02 0.337E+02   0.279E-01 0.161E-03 0.689E+00   -.705E-05 -.683E-04 -.455E-03
   -.122E+02 -.460E+01 -.247E+04   0.119E+02 0.461E+01 0.247E+04   0.289E+00 -.496E-02 0.104E+01   0.662E-04 0.113E-03 -.299E-04
   0.118E-01 0.172E-01 -.253E+04   -.985E-02 -.168E-01 0.253E+04   -.283E-02 -.123E-02 -.114E+01   -.650E-04 0.207E-04 0.935E-04
   -.136E+00 -.670E+01 -.487E+04   0.139E+00 0.671E+01 0.487E+04   -.529E-02 -.992E-02 -.159E+01   0.532E-04 -.403E-04 -.681E-04
   0.103E+02 0.110E+00 -.489E+04   -.102E+02 -.104E+00 0.489E+04   -.155E+00 -.436E-02 0.270E+01   0.455E-04 -.602E-04 0.112E-03
   0.165E-02 0.906E-03 0.488E+04   -.199E-02 -.208E-02 -.488E+04   0.111E-04 -.150E-01 0.109E+01   0.114E-03 0.605E-04 0.338E-03
   0.162E+00 0.251E-01 0.509E+04   -.188E+00 -.274E-01 -.508E+04   0.710E-02 0.507E-03 -.556E+01   0.369E-04 0.823E-04 0.552E-03
   -.109E+01 0.129E+00 0.246E+04   0.122E+01 -.145E+00 -.246E+04   -.364E-01 -.224E-02 -.687E-01   -.294E-04 0.901E-05 -.282E-03
   0.103E-01 0.308E-01 0.245E+04   -.106E-01 -.354E-01 -.245E+04   0.204E-04 0.117E-02 0.465E+00   0.155E-03 0.711E-05 -.239E-04
   0.333E-01 -.393E+00 -.487E+02   -.334E-01 0.402E+00 0.491E+02   0.159E-04 -.858E-02 -.129E+00   0.721E-04 0.227E-04 -.300E-03
   0.605E+01 0.728E+00 -.340E+02   -.633E+01 -.851E+00 0.324E+02   0.759E-01 0.272E-01 0.712E+00   -.162E-04 0.121E-03 -.498E-03
   -.140E+02 -.445E+01 -.248E+04   0.138E+02 0.443E+01 0.248E+04   0.262E+00 0.253E-01 0.101E+01   -.690E-04 0.349E-03 -.274E-03
   0.520E-01 -.306E+01 -.253E+04   -.510E-01 0.310E+01 0.253E+04   -.120E-02 -.381E-01 -.116E+01   -.181E-03 -.565E-04 -.245E-04
   -.794E-01 -.117E+02 -.487E+04   0.807E-01 0.117E+02 0.487E+04   -.221E-02 0.117E-01 -.160E+01   0.177E-04 -.111E-04 -.101E-03
   -.306E+02 -.401E+02 -.492E+04   0.301E+02 0.400E+02 0.491E+04   0.478E+00 0.181E+00 0.276E+01   0.975E-04 0.218E-03 -.980E-05
[...]
   0.244E+00 -.651E-01 0.179E+04   -.282E+00 0.688E-01 -.179E+04   0.490E-01 -.809E-02 0.184E+01   -.396E-06 0.125E-04 0.132E-03
   -.925E+00 -.229E+00 0.678E+03   0.102E+01 0.248E+00 -.673E+03   -.118E+00 -.300E-01 -.426E+01   -.251E-05 0.342E-05 0.393E-05
   -.701E+02 0.386E-01 -.177E+02   0.751E+02 -.313E-01 0.173E+02   -.541E+01 -.314E-01 0.641E+00   0.105E-04 -.253E-04 -.126E-03
   0.702E+02 0.505E-01 -.177E+02   -.751E+02 -.432E-01 0.172E+02   0.541E+01 -.321E-01 0.641E+00   0.537E-04 -.185E-05 -.800E-04
   0.135E-01 0.623E-01 0.531E+03   -.134E-01 -.626E-01 -.536E+03   -.115E-03 0.510E-03 0.489E+01   0.408E-04 -.102E-06 -.418E-05
   0.515E-01 0.493E+00 -.596E+03   -.535E-01 -.489E+00 0.603E+03   0.209E-02 -.399E-02 -.677E+01   0.520E-04 -.147E-04 -.932E-04
   -.312E+02 0.179E+01 -.125E+04   0.337E+02 -.181E+01 0.124E+04   -.253E+01 0.304E-01 0.754E+00   0.230E-03 -.813E-05 -.716E-04
   0.311E+02 0.190E+01 -.125E+04   -.335E+02 -.193E+01 0.124E+04   0.251E+01 0.389E-01 0.755E+00   -.476E-05 -.358E-04 -.553E-04
   0.503E+01 0.479E+00 -.696E+03   -.561E+01 -.438E+00 0.689E+03   0.579E+00 -.391E-01 0.674E+01   -.392E-05 -.255E-04 -.618E-04
   0.119E+02 0.680E+01 -.175E+04   -.125E+02 -.675E+01 0.175E+04   0.657E+00 -.500E-01 0.341E+01   -.105E-04 0.194E-05 -.132E-04
   -.390E+02 -.290E+01 -.255E+04   0.454E+02 0.366E+01 0.255E+04   -.639E+01 -.746E+00 -.423E+01   0.190E-04 0.207E-05 0.234E-04
   0.386E+02 -.336E+01 -.255E+04   -.450E+02 0.416E+01 0.255E+04   0.636E+01 -.782E+00 -.423E+01   0.132E-04 0.634E-06 -.353E-04
   0.634E-01 0.605E+01 -.197E+04   -.677E-01 -.610E+01 0.197E+04   0.433E-02 0.490E-01 -.167E+01   0.440E-04 0.523E-05 0.116E-05
   -.101E-01 0.456E+01 -.296E+04   0.829E-02 -.442E+01 0.298E+04   0.175E-02 -.144E+00 -.208E+02   0.171E-04 0.250E-04 -.111E-04
   0.169E+00 -.507E-01 0.142E+02   -.439E-11 0.125E-11 -.127E-10   -.159E+00 0.493E-01 -.146E+02   -.250E-02 -.383E-04 0.233E-02

 POSITION                                       TOTAL-FORCE (eV/Angst)
      6.57071      1.48345      8.78140         0.000087      0.001417     -3.492284
      9.85607      0.00000      8.78140         0.017377      0.000132      2.760106
      3.28536      1.48345     12.06676        -0.074011      0.001360      0.289056
      6.57071      0.00000     12.06676         0.000090      0.000024     -1.148669
      6.57071      1.48345     15.35211         0.000181     -1.286758     -0.065606
      9.85607      0.00000     15.35211         0.112690      0.000191     -0.870259
      9.87930      1.48172     18.58287        -0.009260      0.003874      0.033642
      6.57094     11.86739     18.87976        -0.002284      0.001284     -0.007871
      6.57304      1.45159     22.27578         0.005858     -0.013260     -0.022782
      9.82932     11.86727     21.78996         0.016044     -0.001983      0.053846
      6.57071      4.45034      8.78140         0.000104     -0.028343     -3.505386
      9.85607      2.96690      8.78140         0.018997     -0.001601      2.795303
      3.28536      4.45034     12.06676        -0.088175     -0.018377      0.278985
      6.57071      2.96690     12.06676         0.000095     -0.029547     -1.208459
      6.57071      4.45034     15.35211         0.000099      0.103698     -0.881010
      9.85607      2.96690     15.35211         0.198250     -0.096285     -0.875624
      9.87497      4.45082     18.58385        -0.015598      0.004226      0.036559
      6.57077      2.93413     18.56499        -0.000517      0.021885      0.011197
      6.57064      4.23410     21.79480        -0.000206      0.027374      0.073033
      9.87103      2.96519     21.79434        -0.007174      0.013214      0.058128
      6.57071      7.41724      8.78140         0.000095      0.028355     -3.505403
      9.85607      5.93379      8.78140         0.019847     -0.000041      2.758334
      3.28536      7.41724     12.06676        -0.088159      0.018415      0.279085
      6.57071      5.93379     12.06676         0.000096      0.000012     -1.326497
      6.57071      7.41724     15.35211        -0.000101     -0.104684     -0.881735
      9.85607      5.93379     15.35211         0.271161     -0.000201     -0.872699
      9.87497      7.41675     18.58381        -0.013730     -0.002746      0.038356
      6.57064      5.93369     18.64237         0.000665     -0.000227      0.007830
      6.57057      7.63264     21.79441         0.000280     -0.024490      0.074601
      9.80612      5.93376     21.78404        -0.004817      0.000549      0.046749
      6.57071     10.38414      8.78140         0.000114     -0.001375     -3.492312
      9.85607      8.90069      8.78140         0.019086      0.001803      2.795529
      3.28536     10.38414     12.06676        -0.074022     -0.001471      0.289137
      6.57071      8.90069     12.06676         0.000064      0.029597     -1.208539
      6.57071     10.38414     15.35211        -0.000033      1.287693     -0.066229
      9.85607      8.90069     15.35211         0.198421      0.096236     -0.875698
      9.87945     10.38596     18.58272        -0.010660     -0.003668      0.033604
      6.57087      8.93315     18.56489        -0.001436     -0.017505      0.011741
      6.57070     10.41372     22.27630         0.000347      0.012104     -0.024768
      9.87075      8.90238     21.79437        -0.007289     -0.011811      0.054958
      0.00000      1.48345      8.78140        -0.000240      0.015757     -3.462270
      3.28536      0.00000      8.78140        -0.017374      0.000147      2.760568
      9.85607      1.48345     12.06676         0.073983      0.001592      0.288976
      0.00000      0.00000     12.06676        -0.000074     -0.000048     -0.965603
      0.00000      1.48345     15.35211        -0.000085      0.009122      0.351409
      3.28536      0.00000     15.35211        -0.112957     -0.000100     -0.872191
      3.26269      1.48187     18.58211         0.007909      0.003879      0.038510
      0.00017      0.00007     18.75472        -0.000929     -0.000816     -0.013632
      0.00031      1.48288     22.12486        -0.001741      0.003251      0.038423
      3.31357      0.00018     21.78862        -0.013011      0.001421      0.058649
      0.00000      4.45034      8.78140        -0.000250     -0.016152     -3.462579
      3.28536      2.96690      8.78140        -0.019163     -0.001789      2.796001
      9.85607      4.45034     12.06676         0.088164     -0.018386      0.278950
      0.00000      2.96690     12.06676        -0.000131     -0.003356     -0.954288
      0.00000      4.45034     15.35211        -0.000084      0.000528      0.360220
      3.28536      2.96690     15.35211        -0.198367     -0.095948     -0.877646
      3.26647      4.45091     18.58389         0.015718      0.003245      0.038887
      0.00028      2.96962     18.75476        -0.000487      0.005083     -0.011368
      0.00014      4.45388     22.13262        -0.000964      0.005600      0.016160
      3.27074      2.96480     21.79432         0.009768      0.012589      0.052249
[...]
     11.86002     10.38414     12.06676        -0.370223     -0.008532      0.099903
      3.28536      8.90069     10.78536         0.011115     -0.004413     -1.193043
      9.85607      8.90069     13.34816        -0.023605     -0.010990      0.174041
     11.13747     10.38414     15.35211        -0.446460     -0.024195      0.178973
      2.00395     10.38414     15.35211         0.446047     -0.024685      0.178734
      0.00000      8.90069     14.07071        -0.000064      0.000138      0.132162
      0.00000      8.90069     16.63352         0.000133      0.000497      0.182559
      1.31967     10.38364     18.66356        -0.063451      0.001837      0.001793
     11.82187     10.38362     18.66362         0.063591      0.001991      0.001931
      9.83490      8.89897     17.38225        -0.000511      0.001890     -0.024234
      9.84312      8.89841     19.98303         0.000920      0.003406     -0.030562
     11.07768     10.37820     22.11014         0.003268      0.016475     -0.010590
      2.06387     10.37835     22.10973        -0.001536      0.016712     -0.011271
      0.00003      8.89380     20.63942         0.000099     -0.002590     -0.013702
      0.00006      8.89848     23.20442        -0.000115      0.000770     -0.019424
    total drift:                                0.007900     -0.001457     -0.358924

  FREE ENERGIE OF THE ION-ELECTRON SYSTEM (eV)
  free  energy   TOTEN  =     -2121.37651478 eV

  energy  without entropy=    -2121.33096686  energy(sigma->0) =    -2121.35374082

 total charge

# of ion       s       p       d       tot
    1        2.213   6.283   1.733  10.230
    2        2.197   6.236   1.719  10.152
    3        2.215   6.283   1.696  10.195
    4        2.216   6.286   1.695  10.197
    5        2.215   6.285   1.697  10.197
    6        2.212   6.280   1.695  10.187
    7        2.216   6.279   1.731  10.226
    8        2.211   6.263   1.706  10.179
    9        2.213   6.274   1.795  10.282
   10        2.227   6.269   1.796  10.291
   11        2.213   6.283   1.734  10.230
   12        2.197   6.236   1.719  10.152
   13        2.215   6.283   1.696  10.195
   14        2.216   6.285   1.696  10.197
   15        2.215   6.285   1.693  10.194
   16        2.213   6.280   1.697  10.190
   17        2.216   6.280   1.730  10.226
   18        2.214   6.277   1.703  10.194
   19        2.236   6.276   1.876  10.387
   20        2.226   6.266   1.797  10.289
   21        2.213   6.283   1.734  10.230
   22        2.197   6.236   1.719  10.152
   23        2.215   6.283   1.696  10.195
   24        2.216   6.285   1.696  10.198
   25        2.215   6.285   1.693  10.194
   26        2.213   6.280   1.696  10.189
   27        2.216   6.280   1.730  10.226
   28        2.206   6.263   1.679  10.148
   29        2.236   6.276   1.876  10.387
   30        2.228   6.271   1.796  10.295
   31        2.213   6.283   1.733  10.230
   32        2.197   6.236   1.719  10.152
   33        2.215   6.283   1.696  10.195
   34        2.216   6.285   1.696  10.197
   35        2.215   6.285   1.697  10.197
   36        2.213   6.280   1.697  10.190
   37        2.216   6.279   1.731  10.226
   38        2.214   6.277   1.703  10.194
   39        2.213   6.274   1.795  10.282
   40        2.226   6.266   1.797  10.289
   41        2.213   6.283   1.734  10.230
   42        2.197   6.236   1.719  10.152
   43        2.215   6.283   1.696  10.195
   44        2.216   6.286   1.694  10.197
   45        2.215   6.286   1.697  10.197
   46        2.212   6.280   1.695  10.187
   47        2.216   6.279   1.731  10.226
   48        2.213   6.271   1.700  10.184
   49        2.213   6.272   1.760  10.245
   50        2.227   6.269   1.796  10.291
   51        2.213   6.283   1.734  10.230
   52        2.197   6.236   1.719  10.152
   53        2.215   6.283   1.696  10.195
   54        2.216   6.286   1.695  10.197
   55        2.215   6.286   1.697  10.197
   56        2.213   6.280   1.697  10.190
   57        2.216   6.280   1.730  10.226
   58        2.213   6.272   1.700  10.185
   59        2.211   6.269   1.760  10.240
   60        2.226   6.266   1.797  10.289
[...]
  225        1.573   3.490   0.000   5.063
  226        1.572   3.479   0.000   5.050
  227        1.573   3.487   0.000   5.059
  228        1.574   3.488   0.000   5.061
  229        1.574   3.488   0.000   5.061
  230        1.574   3.491   0.000   5.064
  231        1.572   3.469   0.000   5.041
  232        1.572   3.489   0.000   5.061
  233        1.572   3.489   0.000   5.061
  234        1.576   3.504   0.000   5.080
  235        1.574   3.502   0.000   5.076
  236        1.571   3.480   0.000   5.051
  237        1.571   3.480   0.000   5.051
  238        1.571   3.463   0.000   5.034
  239        1.591   3.434   0.000   5.026
tot        427.4681054.775 138.0801620.323