 vasp.6.2.0 18Jan21 (build Mar 03 2021 13:27:41) complex

 executed on             LinuxIFC date 2021.05.07  16:26:26

 INCAR:
   SYSTEM = TiO2-rutile
   ISMEAR = 0
   SIGMA = 0.05
   EDIFF = 1E-6
   ALGO = Fast
   ISTART = 0
   IBRION = 2
   NSW = 200
   EDIFFG = -0.01
   ISIF = 3
   ENCUT = 700
   PREC = Accurate
   LASPH = .TRUE.
   LREAL = .FALSE.
   ISPIN = 2
   MAGMOM = 6*1.0
   NELM = 60
   NELMIN = 4
   LWAVE = .FALSE.
   LCHARG = .FALSE.
   LORBIT = 11

 POTCAR:    PAW_PBE Ti_sv 26Sep2005
 POTCAR:    PAW_PBE O 08Apr2002
|           W    W    AA    RRRRR   N    N  II  N    N   GGGG   !!!           |
|           W    W   A  A   R    R  NN   N  II  NN   N  G    G  !!!           |
|           W    W  A    A  R    R  N N  N  II  N N  N  G       !!!           |
|           W WW W  AAAAAA  RRRRR   N  N N  II  N  N N  G  GGG   !            |
|           WW  WW  A    A  R   R   N   NN  II  N   NN  G    G                |
|           W    W  A    A  R    R  N    N  II  N    N   GGGG   !!!           |
|     For optimal performance we recommend to set                             |
|       NCORE = 2 up to number-of-cores-per-socket                            |
|     This setting can greatly improve the performance of VASP for DFT.       |
|     The default, NCORE=1 might be grossly inefficient on modern             |
|     multi-core architectures or massively parallel machines. Do your        |
|     Unfortunately you need to use the default for GW and RPA                |
|     calculations (for HF NCORE is supported but not extensively tested      |
|     yet).                                                                   |

   TITEL  = PAW_PBE Ti_sv 26Sep2005
   POMASS =   47.880; ZVAL   =   12.000    mass and valenz
   ENMAX  =  274.610; ENMIN  =  205.957 eV

   TITEL  = PAW_PBE O 08Apr2002
   POMASS =   16.000; ZVAL   =    6.000    mass and valenz
   ENMAX  =  400.000; ENMIN  =  300.000 eV

  PAW_PBE Ti_sv 26Sep2005               :
  PAW_PBE O 08Apr2002                   :

 POSCAR: Ti2 O4
  positions in direct lattice
  velocities in cartesian coordinates
 exchange correlation table for  LEXCH =        8
   RHO(1)=    0.500       N(1)  =     2000
   RHO(2)=  100.500       N(2)  =     4000

 ion  position               nearest neighbor table
   1  0.500  0.500  0.500-   5 1.96   6 1.96   5 1.96   6 1.96   3 2.00   4 2.00
   2  0.000  0.000  0.000-   3 1.96   4 1.96   3 1.96   4 1.96   5 2.00   6 2.00
   3  0.195  0.805  0.500-   2 1.96   2 1.96   1 2.00
   4  0.805  0.195  0.500-   2 1.96   2 1.96   1 2.00
   5  0.305  0.305  0.000-   1 1.96   1 1.96   2 2.00
   6  0.695  0.695  0.000-   1 1.96   1 1.96   2 2.00

  LATTYP: Found a simple tetragonal cell.
 ALAT       =     4.6457254827
 C/A-ratio  =     0.6383776753

  Lattice vectors:

 A1 = (   4.6457254827,   0.0000000000,   0.0000000000)
 A2 = (   0.0000000000,   4.6457254827,   0.0000000000)
 A3 = (   0.0000000000,   0.0000000000,   2.9657274338)

Analysis of symmetry for initial positions (statically):
 Subroutine PRICEL returns:
 Original cell was already a primitive cell.

 Routine SETGRP: Setting up the symmetry group for a
 simple tetragonal supercell.

 Subroutine GETGRP returns: Found 16 space group operations
 (whereof  8 operations were pure point group operations)
 out of a pool of 16 trial point group operations.

The static configuration has the point symmetry D_2h.
 The point group associated with its full space group is D_4h.

Analysis of symmetry for dynamics (positions and initial velocities):
 Subroutine PRICEL returns:
 Original cell was already a primitive cell.

[...]

The dynamic configuration has the point symmetry D_2h.
 The point group associated with its full space group is D_4h.

Analysis of structural, dynamic, and magnetic symmetry:
 Subroutine PRICEL returns:
 Original cell was already a primitive cell.

 Routine SETGRP: Setting up the symmetry group for a
 simple tetragonal supercell.

 Subroutine GETGRP returns: Found 16 space group operations
 (whereof  8 operations were pure point group operations)
 out of a pool of 16 trial point group operations.

The overall configuration has the point symmetry D_2h.
 The point group associated with its full space group is D_4h.

 Subroutine INISYM returns: Found 16 space group operations
 (whereof  8 operations are pure point group operations),
 and found     1 'primitive' translations

                                     Primitive cell

  volume of cell :      64.0086

  direct lattice vectors                    reciprocal lattice vectors
     4.645725483  0.000000000  0.000000000     0.215251634  0.000000000  0.000000000
     0.000000000  4.645725483  0.000000000     0.000000000  0.215251634  0.000000000
     0.000000000  0.000000000  2.965727434     0.000000000  0.000000000  0.337185403

  length of vectors
     4.645725483  4.645725483  2.965727434     0.215251634  0.215251634  0.337185403

  position of ions in fractional coordinates (direct lattice)
     0.500000000  0.500000000  0.500000000
     0.000000000  0.000000000  0.000000000
     0.195005798  0.804994202  0.500000000
     0.804994202  0.195005798  0.500000000
     0.304994202  0.304994202  0.000000000
     0.695005798  0.695005798  0.000000000

  ion indices of the primitive-cell ions
   primitive index   ion index
                 1           1
                 2           2
                 3           3
                 4           4
                 5           5
                 6           6

 KPOINTS: pymatgen v2020.8.13 with grid density =

Automatic generation of k-mesh.
 Grid dimensions read from file:
 generate k-points for:    7    7   11

 Generating k-lattice:

  Cartesian coordinates                     Fractional coordinates (reciprocal lattice)
     0.030750233  0.000000000  0.000000000     0.142857143  0.000000000  0.000000000
     0.000000000  0.030750233  0.000000000     0.000000000  0.142857143  0.000000000
     0.000000000  0.000000000  0.030653218     0.000000000  0.000000000  0.090909091

  Length of vectors
     0.030750233  0.030750233  0.030653218

  Shift w.r.t. Gamma in fractional coordinates (k-lattice)
     0.000000000  0.000000000  0.000000000

 Subroutine IBZKPT returns following result:

 Found     60 irreducible k-points:

 Following reciprocal coordinates:
            Coordinates               Weight
  0.000000  0.000000  0.000000      1.000000
  0.142857  0.000000  0.000000      4.000000
  0.285714  0.000000  0.000000      4.000000
  0.428571  0.000000  0.000000      4.000000
  0.142857  0.142857  0.000000      4.000000
  0.285714  0.142857  0.000000      8.000000
  0.428571  0.142857  0.000000      8.000000
  0.285714  0.285714  0.000000      4.000000
  0.428571  0.285714  0.000000      8.000000
  0.428571  0.428571  0.000000      4.000000
  0.000000  0.000000  0.090909      2.000000
  0.142857  0.000000  0.090909      8.000000
  0.285714  0.000000  0.090909      8.000000
  0.428571  0.000000  0.090909      8.000000
  0.142857  0.142857  0.090909      8.000000
  0.285714  0.142857  0.090909     16.000000
  0.428571  0.142857  0.090909     16.000000
  0.285714  0.285714  0.090909      8.000000
  0.428571  0.285714  0.090909     16.000000
  0.428571  0.428571  0.090909      8.000000
  0.000000  0.000000  0.181818      2.000000
  0.142857  0.000000  0.181818      8.000000
  0.285714  0.000000  0.181818      8.000000
  0.428571  0.000000  0.181818      8.000000
  0.142857  0.142857  0.181818      8.000000
  0.285714  0.142857  0.181818     16.000000
  0.428571  0.142857  0.181818     16.000000
  0.285714  0.285714  0.181818      8.000000
  0.428571  0.285714  0.181818     16.000000
  0.428571  0.428571  0.181818      8.000000
  0.000000  0.000000  0.272727      2.000000
  0.142857  0.000000  0.272727      8.000000
  0.285714  0.000000  0.272727      8.000000
  0.428571  0.000000  0.272727      8.000000
  0.142857  0.142857  0.272727      8.000000
  0.285714  0.142857  0.272727     16.000000
  0.428571  0.142857  0.272727     16.000000
  0.285714  0.285714  0.272727      8.000000
  0.428571  0.285714  0.272727     16.000000
  0.428571  0.428571  0.272727      8.000000
  0.000000  0.000000  0.363636      2.000000
  0.142857  0.000000  0.363636      8.000000
  0.285714  0.000000  0.363636      8.000000
  0.428571  0.000000  0.363636      8.000000
  0.142857  0.142857  0.363636      8.000000
  0.285714  0.142857  0.363636     16.000000
  0.428571  0.142857  0.363636     16.000000
  0.285714  0.285714  0.363636      8.000000
  0.428571  0.285714  0.363636     16.000000
  0.428571  0.428571  0.363636      8.000000
  0.000000  0.000000  0.454545      2.000000
  0.142857  0.000000  0.454545      8.000000
  0.285714  0.000000  0.454545      8.000000
  0.428571  0.000000  0.454545      8.000000
  0.142857  0.142857  0.454545      8.000000
  0.285714  0.142857  0.454545     16.000000
  0.428571  0.142857  0.454545     16.000000
  0.285714  0.285714  0.454545      8.000000
  0.428571  0.285714  0.454545     16.000000
  0.428571  0.428571  0.454545      8.000000

 Following cartesian coordinates:
            Coordinates               Weight
  0.000000  0.000000  0.000000      1.000000
  0.030750  0.000000  0.000000      4.000000
  0.061500  0.000000  0.000000      4.000000
  0.092251  0.000000  0.000000      4.000000
  0.030750  0.030750  0.000000      4.000000
  0.061500  0.030750  0.000000      8.000000
  0.092251  0.030750  0.000000      8.000000
  0.061500  0.061500  0.000000      4.000000
  0.092251  0.061500  0.000000      8.000000
  0.092251  0.092251  0.000000      4.000000
  0.000000  0.000000  0.030653      2.000000
  0.030750  0.000000  0.030653      8.000000
  0.061500  0.000000  0.030653      8.000000
  0.092251  0.000000  0.030653      8.000000
  0.030750  0.030750  0.030653      8.000000
  0.061500  0.030750  0.030653     16.000000
  0.092251  0.030750  0.030653     16.000000
  0.061500  0.061500  0.030653      8.000000
  0.092251  0.061500  0.030653     16.000000
  0.092251  0.092251  0.030653      8.000000
  0.000000  0.000000  0.061306      2.000000
  0.030750  0.000000  0.061306      8.000000
  0.061500  0.000000  0.061306      8.000000
  0.092251  0.000000  0.061306      8.000000
  0.030750  0.030750  0.061306      8.000000
  0.061500  0.030750  0.061306     16.000000
  0.092251  0.030750  0.061306     16.000000
  0.061500  0.061500  0.061306      8.000000
  0.092251  0.061500  0.061306     16.000000
  0.092251  0.092251  0.061306      8.000000
  0.000000  0.000000  0.091960      2.000000
  0.030750  0.000000  0.091960      8.000000
  0.061500  0.000000  0.091960      8.000000
  0.092251  0.000000  0.091960      8.000000
  0.030750  0.030750  0.091960      8.000000
  0.061500  0.030750  0.091960     16.000000
  0.092251  0.030750  0.091960     16.000000
  0.061500  0.061500  0.091960      8.000000
  0.092251  0.061500  0.091960     16.000000
  0.092251  0.092251  0.091960      8.000000
  0.000000  0.000000  0.122613      2.000000
  0.030750  0.000000  0.122613      8.000000
  0.061500  0.000000  0.122613      8.000000
  0.092251  0.000000  0.122613      8.000000
  0.030750  0.030750  0.122613      8.000000
[...]

 Broyden mixing: mesh for mixing (old mesh)
   NGX = 21   NGY = 21   NGZ = 13
  (NGX  = 80   NGY  = 80   NGZ  = 56)
  gives a total of   5733 points

 initial charge density was supplied:
 charge density of overlapping atoms calculated
 number of electron      48.0000000 magnetization       6.0000000
 keeping initial charge density in first step

 Maximum index for augmentation-charges         1101 (set IRDMAX)

 First call to EWALD:  gamma=   0.443
 Maximum number of real-space cells 2x 2x 4
 Maximum number of reciprocal cells 3x 3x 2

--------------------------------------- Iteration      1(   1)  ---------------------------------------

 eigenvalue-minimisations  : 19200
 total energy-change (2. order) : 0.7626360E+02  (-0.3694289E+04)
 number of electron      48.0000000 magnetization       6.0000000
 augmentation part       48.0000000 magnetization       6.0000000

 Free energy of the ion-electron system (eV)
  alpha Z        PSCENC =       193.72746181
  Ewald energy   TEWEN  =     -3562.67962697
  -Hartree energ DENC   =     -1273.98504108
  -exchange      EXHF   =         0.00000000
  -V(xc)+E(xc)   XCENC  =       235.67472346
  PAW double counting   =      3914.58842164    -3882.59996032
  entropy T*S    EENTRO =        -0.00000000
  eigenvalues    EBANDS =      -454.11695131
  atomic energy  EATOM  =      4905.65456919
  Solvation  Ediel_sol  =         0.00000000
  free energy    TOTEN  =        76.26359643 eV

  energy without entropy =       76.26359643  energy(sigma->0) =       76.26359643

[...]

 eigenvalue-minimisations  : 28720
 total energy-change (2. order) :-0.1450162E+03  (-0.1450162E+03)
 number of electron      48.0000000 magnetization       6.0000000
 augmentation part       48.0000000 magnetization       6.0000000

[...]

 Broyden mixing:
  rms(total) = 0.33989E+01    rms(broyden)= 0.33989E+01
  rms(prec ) = 0.59226E+01
  weight for this iteration     100.00

[...]

 eigenvalues of (default mixing * dielectric matrix)
  average eigenvalue GAMMA=   0.7746
  0.7746

[...]

 eigenvalue-minimisations  : 20437
 total energy-change (2. order) : 0.3971802E-02  (-0.7805484E-03)
 number of electron      47.9999988 magnetization       0.0000232
 augmentation part        9.5437128 magnetization       0.0014750

[...]

 Broyden mixing:
  rms(total) = 0.34965E-03    rms(broyden)= 0.34964E-03
  rms(prec ) = 0.57274E-03
  weight for this iteration     100.00

 eigenvalues of (default mixing * dielectric matrix)
  average eigenvalue GAMMA=   1.3253
  3.1917  2.2258  2.2258  1.4949  1.0186  1.0186  0.8773  0.5358  0.7350  0.6219
  0.6334

[...]

--------------------------------------- Iteration      1(  17)  ---------------------------------------

 eigenvalue-minimisations  : 16569
 total energy-change (2. order) :-0.8956204E-06  (-0.1445746E-06)
 number of electron      47.9999988 magnetization      -0.0000099
 augmentation part        9.5366625 magnetization      -0.0000019

 Free energy of the ion-electron system (eV)
  alpha Z        PSCENC =       193.72746181
  Ewald energy   TEWEN  =     -3562.67962697
  -Hartree energ DENC   =     -1254.52641281
  -exchange      EXHF   =         0.00000000
  -V(xc)+E(xc)   XCENC  =       236.06546075
  PAW double counting   =      5382.87232168    -5345.15006027
  entropy T*S    EENTRO =        -0.00000000
  eigenvalues    EBANDS =      -609.66152078
  atomic energy  EATOM  =      4905.65456919
  Solvation  Ediel_sol  =         0.00000000
  free energy    TOTEN  =       -53.69780739 eV

  energy without entropy =      -53.69780739  energy(sigma->0) =      -53.69780739

 average (electrostatic) potential at core
  the test charge radii are     1.0397  0.7215
  (the norm of the test charge is              1.0000)
       1 -76.5620       2 -76.5620       3 -69.5533       4 -69.5533       5 -69.5533
       6 -69.5533

 E-fermi :   4.8846     XC(G=0): -11.2757     alpha+bet :-13.4570

 Fermi energy:         4.8845823492

 spin component 1

 k-point     1 :       0.0000    0.0000    0.0000
  band No.  band energies     occupation
      1     -52.4103      1.00000
      2     -52.3956      1.00000
      3     -28.6950      1.00000
      4     -28.6950      1.00000
      5     -28.5466      1.00000
      6     -28.5466      1.00000
      7     -28.5032      1.00000
      8     -28.4740      1.00000
      9     -13.5091      1.00000
     10     -12.3845      1.00000
     11     -11.7103      1.00000
     12     -11.7103      1.00000
     13      -1.0786      1.00000
     14      -0.6390      1.00000
     15      -0.1719      1.00000
     16       0.8569      1.00000
     17       0.8569      1.00000
     18       2.0487      1.00000
     19       2.0487      1.00000
     20       2.6684      1.00000
     21       3.8904      1.00000
     22       4.1256      1.00000
     23       4.1256      1.00000
     24       4.5593      1.00000
     25       6.3858      0.00000
     26       6.6677      0.00000
     27       6.9373      0.00000
     28       7.0151      0.00000
     29       7.0151      0.00000
     30       8.7568      0.00000
     31       8.9992      0.00000
     32      11.0049      0.00000
     33      11.0049      0.00000
     34      11.9007      0.00000
     35      12.2960      0.00000
     36      16.1303      0.00000
     37      16.1303      0.00000
     38      18.8771      0.00000
     39      20.1235      0.00000
     40      20.8506      0.00000
     41      22.3672      0.00000
     42      23.6094      0.00000
     43      23.6094      0.00000
     44      24.0167      0.00000
     45      25.8174      0.00000
     46      27.3610      0.00000
     47      28.2767      0.00000
     48      28.2767      0.00000
     49      29.4836      0.00000
     50      29.8293      0.00000
     51      29.8293      0.00000
     52      30.2225      0.00000
     53      30.6530      0.00000
     54      30.6530      0.00000
     55      31.1486      0.00000
     56      33.1233      0.00000
     57      35.5067      0.00000
     58      36.2613      0.00000
     59      36.3276      0.00000
     60      36.6889      0.00000
[...]
     66      40.6119      0.00000
     67      40.6120      0.00000
     68      41.0852      0.00000
     69      43.9143      0.00000
     70      44.4274      0.00000
     71      44.4274      0.00000
     72      44.7263      0.00000
     73      45.0003      0.00000
     74      45.2460      0.00000
     75      46.2448      0.00000
     76      46.2449      0.00000
     77      47.2302      0.00000
     78      47.2302      0.00000
     79      47.5704      0.00000
     80      47.6648      0.00000

[...]

 k-point    60 :       0.4286    0.4286    0.4545
  band No.  band energies     occupation
      1     -52.3653      1.00000
      2     -52.3652      1.00000
      3     -28.9078      1.00000
      4     -28.9064      1.00000
      5     -28.5703      1.00000
      6     -28.5680      1.00000
      7     -28.5454      1.00000
      8     -28.5452      1.00000
      9     -12.3216      1.00000
     10     -12.2611      1.00000
     11     -12.0215      1.00000
     12     -11.9582      1.00000
     13      -0.1646      1.00000
     14       0.0177      1.00000
     15       0.1332      1.00000
     16       0.2716      1.00000
     17       1.0588      1.00000
     18       1.2030      1.00000
     19       1.8853      1.00000
     20       1.9169      1.00000
     21       3.2602      1.00000
     22       3.3058      1.00000
     23       3.7936      1.00000
     24       3.8676      1.00000
     25       6.9150      0.00000
     26       7.1329      0.00000
     27       7.6616      0.00000
     28       7.7065      0.00000
     29       7.7247      0.00000
     30       7.8875      0.00000
     31       9.8765      0.00000
     32      10.2721      0.00000
     33      10.4185      0.00000
     34      10.8154      0.00000
     35      16.1969      0.00000
     36      16.3505      0.00000
     37      18.1604      0.00000
     38      18.6405      0.00000
     39      19.1897      0.00000
     40      19.6064      0.00000
     41      21.4171      0.00000
     42      21.4612      0.00000
     43      23.0236      0.00000
     44      23.2286      0.00000
     45      23.8566      0.00000
     46      24.1808      0.00000
     47      27.6190      0.00000
     48      28.0878      0.00000
     49      28.9959      0.00000
     50      29.1210      0.00000
     51      30.3271      0.00000
     52      30.8041      0.00000
     53      32.9786      0.00000
     54      33.0338      0.00000
     55      35.4874      0.00000
     56      35.7480      0.00000
     57      37.0629      0.00000
     58      37.4854      0.00000
     59      37.7449      0.00000
     60      38.0838      0.00000
[...]
     66      40.2956      0.00000
     67      41.6843      0.00000
     68      42.1194      0.00000
     69      42.5983      0.00000
     70      43.2020      0.00000
     71      43.5358      0.00000
     72      43.8495      0.00000
     73      44.2556      0.00000
     74      45.0171      0.00000
     75      46.5119      0.00000
     76      46.6282      0.00000
     77      48.3850      0.00000
     78      48.4939      0.00000
     79      50.3934      0.00000
     80      50.6535      0.00000
 Fermi energy:         4.8845823492

 spin component 2

[...]

 k-point    60 :       0.4286    0.4286    0.4545
  band No.  band energies     occupation
      1     -52.3653      1.00000
      2     -52.3652      1.00000
      3     -28.9078      1.00000
      4     -28.9064      1.00000
      5     -28.5702      1.00000
      6     -28.5680      1.00000
      7     -28.5454      1.00000
      8     -28.5452      1.00000
      9     -12.3217      1.00000
     10     -12.2611      1.00000
     11     -12.0215      1.00000
     12     -11.9582      1.00000
     13      -0.1646      1.00000
     14       0.0177      1.00000
     15       0.1332      1.00000
     16       0.2716      1.00000
     17       1.0588      1.00000
     18       1.2030      1.00000
     19       1.8853      1.00000
     20       1.9169      1.00000
     21       3.2602      1.00000
     22       3.3058      1.00000
     23       3.7936      1.00000
     24       3.8676      1.00000
     25       6.9150      0.00000
     26       7.1329      0.00000
     27       7.6616      0.00000
     28       7.7065      0.00000
     29       7.7247      0.00000
     30       7.8875      0.00000
     31       9.8765      0.00000
     32      10.2721      0.00000
     33      10.4185      0.00000
     34      10.8154      0.00000
     35      16.1969      0.00000
     36      16.3506      0.00000
     37      18.1619      0.00000
     38      18.6599      0.00000
     39      19.1898      0.00000
     40      19.6064      0.00000
     41      21.4173      0.00000
     42      21.4612      0.00000
     43      23.0236      0.00000
     44      23.2286      0.00000
     45      23.8566      0.00000
     46      24.1807      0.00000
     47      27.6710      0.00000
     48      28.1005      0.00000
     49      29.0141      0.00000
     50      29.1519      0.00000
     51      30.3506      0.00000
     52      30.8188      0.00000
     53      32.9786      0.00000
     54      33.0338      0.00000
     55      35.5013      0.00000
     56      35.7595      0.00000
     57      37.0733      0.00000
     58      37.4799      0.00000
     59      37.7449      0.00000
     60      38.0909      0.00000
[...]
     66      40.2988      0.00000
     67      41.6923      0.00000
     68      42.1262      0.00000
     69      42.5903      0.00000
     70      43.2021      0.00000
     71      43.5257      0.00000
     72      43.8462      0.00000
     73      44.2744      0.00000
     74      45.0272      0.00000
     75      46.5162      0.00000
     76      46.6340      0.00000
     77      48.3867      0.00000
     78      48.4897      0.00000
     79      50.3929      0.00000
     80      50.6507      0.00000

 soft charge-density along one line, spin component           1
         0         1         2         3         4         5         6         7         8         9
 total charge-density along one line

 soft charge-density along one line, spin component           2
         0         1         2         3         4         5         6         7         8         9
 total charge-density along one line

------------------------ aborting loop because EDIFF is reached ----------------------------------------

 total charge

# of ion       s       p       d       tot
    1        2.216   6.286   1.692  10.193
    2        2.216   6.286   1.692  10.193
    3        1.567   3.492   0.000   5.060
    4        1.567   3.492   0.000   5.060
    5        1.567   3.492   0.000   5.060
    6        1.567   3.492   0.000   5.060
tot         10.701  26.541   3.384  40.626

 magnetization (x)

[...]

  FORCE on cell =-STRESS in cart. coord.  units (eV):
  Direction    XX          YY          ZZ          XY          YZ          ZX
  Alpha Z   193.72746   193.72746   193.72746
  Ewald   -1381.08740 -1381.08740  -800.50754    -0.00000    -0.00000    -0.00000
  Hartree   306.93566   306.93566   640.65171     0.00000    -0.00000    -0.00000
  E(xc)    -247.06258  -247.06258  -246.32294    -0.00000     0.00000     0.00000
  Local     254.61042   254.61042  -650.31389    -0.00000     0.00000    -0.00000
  n-local  -155.86355  -154.65312  -159.92447    -0.73757     0.18462     0.13888
  augment   145.43457   145.43457   146.13612    -0.00000    -0.00000     0.00000
  Kinetic   884.07825   881.24239   876.57860    -0.41276    -0.79891    -1.55832
  Fock        0.00000     0.00000     0.00000     0.00000     0.00000     0.00000
  Total      -0.03988    -0.03988     0.02505     0.00000     0.00000     0.00000
  in kB      -0.99816    -0.99816     0.62692     0.00000     0.00000     0.00000

 VOLUME and BASIS-vectors are now :
  energy-cutoff  :      700.00
  volume of cell :       64.01
      direct lattice vectors                 reciprocal lattice vectors
     4.645725483  0.000000000  0.000000000     0.215251634  0.000000000  0.000000000
     0.000000000  4.645725483  0.000000000     0.000000000  0.215251634  0.000000000
     0.000000000  0.000000000  2.965727434     0.000000000  0.000000000  0.337185403

  length of vectors
     4.645725483  4.645725483  2.965727434     0.215251634  0.215251634  0.337185403

 FORCES acting on ions
    electron-ion (+dipol)            ewald-force                    non-local-force                 convergence-correction
   0.122E-11 -.846E-13 -.221E-11   0.000E+00 0.284E-13 -.621E-15   0.174E-23 -.119E-23 0.298E-24   -.141E-12 -.595E-13 -.686E-13
   -.961E-14 0.430E-15 -.102E-12   -.114E-12 -.114E-12 -.238E-14   -.119E-23 -.463E-24 0.461E-24   -.613E-13 -.648E-13 -.123E-13
   -.467E+02 0.467E+02 0.186E-11   0.500E+02 -.500E+02 0.191E-15   -.327E+01 0.327E+01 -.755E-18   -.578E-03 0.578E-03 0.164E-13
   0.467E+02 -.467E+02 -.859E-11   -.500E+02 0.500E+02 -.627E-16   0.327E+01 -.327E+01 -.572E-17   0.578E-03 -.578E-03 -.367E-13
   0.467E+02 0.467E+02 -.287E-06   -.500E+02 -.500E+02 -.512E-15   0.327E+01 0.327E+01 -.536E-18   0.578E-03 0.578E-03 0.570E-14
   -.467E+02 -.467E+02 0.287E-06   0.500E+02 0.500E+02 -.682E-15   -.327E+01 -.327E+01 -.473E-17   -.578E-03 -.578E-03 -.149E-14
   0.289E-11 -.373E-11 -.281E-11   0.000E+00 -.711E-14 -.407E-14   0.444E-15 -.444E-15 -.117E-16   -.248E-12 -.179E-12 -.970E-13

 POSITION                                       TOTAL-FORCE (eV/Angst)
      2.32286      2.32286      1.48286         0.000000      0.000000      0.000000
      0.00000      0.00000      0.00000         0.000000      0.000000      0.000000
      0.90594      3.73978      1.48286        -0.000090      0.000090     -0.000000
      3.73978      0.90594      1.48286         0.000090     -0.000090     -0.000000
      1.41692      1.41692      0.00000         0.000090      0.000090     -0.000000
      3.22881      3.22881      0.00000        -0.000090     -0.000090     -0.000000
    total drift:                                0.000000     -0.000000     -0.000000

  FREE ENERGIE OF THE ION-ELECTRON SYSTEM (eV)
  free  energy   TOTEN  =       -53.69780739 eV

  energy  without entropy=      -53.69780739  energy(sigma->0) =      -53.69780739

 reached required accuracy - stopping structural energy minimisation

 total charge

[...]

 magnetization (x)

# of ion       s       p       d       tot
    1       -0.000  -0.000   0.000   0.000
    2       -0.000  -0.000   0.000   0.000
    3        0.000  -0.000   0.000  -0.000
    4        0.000  -0.000   0.000  -0.000
    5        0.000  -0.000   0.000  -0.000
    6        0.000  -0.000   0.000  -0.000
tot         -0.000  -0.000   0.000  -0.000