 vasp.6.2.0 18Jan21 (build Mar 07 2021 16:14:06) complex

 executed on             LinuxIFC date 2021.08.09  14:32:46

 INCAR:
   SYSTEM = MgO-rocksalt
   ISMEAR = 0
   SIGMA = 0.05
   EDIFF = 1E-6
   ALGO = Fast
   METAGGA = R2SCAN
   ISTART = 0
   IBRION = 2
   NSW = 200
   EDIFFG = -0.01
   ISIF = 3
   ENCUT = 800
   PREC = Accurate
   LASPH = .TRUE.
   LREAL = .FALSE.
   ISPIN = 1
   NELM = 60
   NELMIN = 4
   NCORE = 14
   LWAVE = .FALSE.
   LCHARG = .FALSE.
   LORBIT = 11

 POTCAR:    PAW_PBE Mg_sv 12Apr2007
 POTCAR:    PAW_PBE O 08Apr2002
 POTCAR:    PAW_PBE Mg_sv 12Apr2007
   VRHFIN =Mg: p6s2

   TITEL  = PAW_PBE Mg_sv 12Apr2007
   POMASS =   24.305; ZVAL   =   10.000    mass and valenz
   ENMAX  =  495.223; ENMIN  =  371.417 eV

   TITEL  = PAW_PBE O 08Apr2002
   POMASS =   16.000; ZVAL   =    6.000    mass and valenz
   ENMAX  =  400.000; ENMIN  =  300.000 eV

  PAW_PBE Mg_sv 12Apr2007               :
  PAW_PBE O 08Apr2002                   :

 POSCAR: Mg4 O4
  positions in direct lattice
  velocities in cartesian coordinates

 METAGGA = R2SCA    LMAXTAU =  6    LMIXTAU =  F

 ion  position               nearest neighbor table
   1  0.000  0.000  0.000-   5 2.10   7 2.10   8 2.10   7 2.10   8 2.10   5 2.10
   2  0.000  0.500  0.500-   6 2.10   7 2.10   8 2.10   8 2.10   7 2.10   6 2.10
   3  0.500  0.000  0.500-   5 2.10   6 2.10   7 2.10   5 2.10   6 2.10   7 2.10
   4  0.500  0.500  0.000-   5 2.10   6 2.10   8 2.10   6 2.10   5 2.10   8 2.10
   5  0.500  0.000  0.000-   1 2.10   3 2.10   4 2.10   3 2.10   4 2.10   1 2.10
   6  0.500  0.500  0.500-   2 2.10   3 2.10   4 2.10   4 2.10   3 2.10   2 2.10
   7  0.000  0.000  0.500-   1 2.10   2 2.10   3 2.10   1 2.10   2 2.10   3 2.10
   8  0.000  0.500  0.000-   1 2.10   2 2.10   4 2.10   2 2.10   1 2.10   4 2.10

  LATTYP: Found a simple cubic cell.
 ALAT       =     4.2064569314

  Lattice vectors:

 A1 = (   4.2064569314,   0.0000000000,   0.0000000000)
 A2 = (   0.0000000000,   4.2064569314,   0.0000000000)
 A3 = (   0.0000000000,   0.0000000000,   4.2064569314)

Analysis of symmetry for initial positions (statically):
 Subroutine PRICEL returns following result:

  LATTYP: Found a face centered cubic cell.
 ALAT       =     4.2064569314

[...]

   4 primitive cells build up your supercell.

 Routine SETGRP: Setting up the symmetry group for a
 simple cubic supercell.

 Subroutine GETGRP returns: Found 48 space group operations
 (whereof 48 operations were pure point group operations)
 out of a pool of 48 trial point group operations.

The static configuration has the point symmetry O_h .

Analysis of symmetry for dynamics (positions and initial velocities):
 Subroutine PRICEL returns following result:

  LATTYP: Found a face centered cubic cell.
 ALAT       =     4.2064569314

  Lattice vectors:

 A1 = (   2.1032284657,  -2.1032284657,   0.0000000000)
 A2 = (   2.1032284657,   0.0000000000,   2.1032284657)
 A3 = (   0.0000000000,  -2.1032284657,   2.1032284657)

   4 primitive cells build up your supercell.

 Routine SETGRP: Setting up the symmetry group for a
 simple cubic supercell.

 Subroutine GETGRP returns: Found 48 space group operations
 (whereof 48 operations were pure point group operations)
 out of a pool of 48 trial point group operations.

The dynamic configuration has the point symmetry O_h .

 Subroutine INISYM returns: Found 48 space group operations
 (whereof 48 operations are pure point group operations),
 and found     4 'primitive' translations

                                     Primitive cell

  volume of cell :      18.6076

  direct lattice vectors                    reciprocal lattice vectors
     2.103228466 -2.103228466  0.000000000     0.237729761 -0.237729761 -0.237729761
     2.103228466  0.000000000  2.103228466     0.237729761  0.237729761  0.237729761
     0.000000000 -2.103228466  2.103228466    -0.237729761 -0.237729761  0.237729761

  length of vectors
     2.974414221  2.974414221  2.974414221     0.411760024  0.411760024  0.411760024

  position of ions in fractional coordinates (direct lattice)
     0.000000000  0.000000000  0.000000000
     0.500000000  0.500000000  0.500000000

  ion indices of the primitive-cell ions
   primitive index   ion index
                 1           1
                 2           5

 KPOINTS: pymatgen v2020.8.13 with grid density =

Automatic generation of k-mesh.
 Grid dimensions read from file:
 generate k-points for:    9    9    9

 Generating k-lattice:

  Cartesian coordinates                     Fractional coordinates (reciprocal lattice)
     0.026414418  0.000000000  0.000000000     0.111111111  0.000000000  0.000000000
     0.000000000  0.026414418  0.000000000     0.000000000  0.111111111  0.000000000
     0.000000000  0.000000000  0.026414418     0.000000000  0.000000000  0.111111111

  Length of vectors
     0.026414418  0.026414418  0.026414418

  Shift w.r.t. Gamma in fractional coordinates (k-lattice)
     0.000000000  0.000000000  0.000000000

 Subroutine IBZKPT returns following result:

 Found     35 irreducible k-points:

 Following reciprocal coordinates:
            Coordinates               Weight
  0.000000  0.000000  0.000000      1.000000
  0.111111  0.000000  0.000000      6.000000
  0.222222  0.000000  0.000000      6.000000
  0.333333  0.000000  0.000000      6.000000
  0.444444  0.000000  0.000000      6.000000
  0.111111  0.111111  0.000000     12.000000
  0.222222  0.111111  0.000000     24.000000
  0.333333  0.111111  0.000000     24.000000
  0.444444  0.111111  0.000000     24.000000
  0.222222  0.222222  0.000000     12.000000
  0.333333  0.222222  0.000000     24.000000
  0.444444  0.222222  0.000000     24.000000
  0.333333  0.333333  0.000000     12.000000
  0.444444  0.333333  0.000000     24.000000
  0.444444  0.444444  0.000000     12.000000
  0.111111  0.111111  0.111111      8.000000
  0.222222  0.111111  0.111111     24.000000
  0.333333  0.111111  0.111111     24.000000
  0.444444  0.111111  0.111111     24.000000
  0.222222  0.222222  0.111111     24.000000
  0.333333  0.222222  0.111111     48.000000
  0.444444  0.222222  0.111111     48.000000
  0.333333  0.333333  0.111111     24.000000
  0.444444  0.333333  0.111111     48.000000
  0.444444  0.444444  0.111111     24.000000
  0.222222  0.222222  0.222222      8.000000
  0.333333  0.222222  0.222222     24.000000
  0.444444  0.222222  0.222222     24.000000
  0.333333  0.333333  0.222222     24.000000
  0.444444  0.333333  0.222222     48.000000
  0.444444  0.444444  0.222222     24.000000
  0.333333  0.333333  0.333333      8.000000
  0.444444  0.333333  0.333333     24.000000
  0.444444  0.444444  0.333333     24.000000
  0.444444  0.444444  0.444444      8.000000

 Following cartesian coordinates:
            Coordinates               Weight
  0.000000  0.000000  0.000000      1.000000
  0.026414  0.000000  0.000000      6.000000
  0.052829  0.000000  0.000000      6.000000
  0.079243  0.000000  0.000000      6.000000
  0.105658  0.000000  0.000000      6.000000
  0.026414  0.026414  0.000000     12.000000
  0.052829  0.026414  0.000000     24.000000
  0.079243  0.026414  0.000000     24.000000
  0.105658  0.026414  0.000000     24.000000
  0.052829  0.052829  0.000000     12.000000
  0.079243  0.052829  0.000000     24.000000
  0.105658  0.052829  0.000000     24.000000
  0.079243  0.079243  0.000000     12.000000
  0.105658  0.079243  0.000000     24.000000
  0.105658  0.105658  0.000000     12.000000
  0.026414  0.026414  0.026414      8.000000
  0.052829  0.026414  0.026414     24.000000
  0.079243  0.026414  0.026414     24.000000
  0.105658  0.026414  0.026414     24.000000
  0.052829  0.052829  0.026414     24.000000
  0.079243  0.052829  0.026414     48.000000
  0.105658  0.052829  0.026414     48.000000
  0.079243  0.079243  0.026414     24.000000
  0.105658  0.079243  0.026414     48.000000
  0.105658  0.105658  0.026414     24.000000
  0.052829  0.052829  0.052829      8.000000
  0.079243  0.052829  0.052829     24.000000
  0.105658  0.052829  0.052829     24.000000
  0.079243  0.079243  0.052829     24.000000
  0.105658  0.079243  0.052829     48.000000
  0.105658  0.105658  0.052829     24.000000
  0.079243  0.079243  0.079243      8.000000
  0.105658  0.079243  0.079243     24.000000
  0.105658  0.105658  0.079243     24.000000
  0.105658  0.105658  0.105658      8.000000

 SYSTEM =  MgO-rocksalt
 POSCAR =  Mg4 O4

 Startparameter for this run:
   NWRITE =      2    write-flag & timer
   PREC   = accura    normal or accurate (medium, high low for compatibility)
   ISTART =      0    job   : 0-new  1-cont  2-samecut
   ICHARG =      2    charge: 1-file 2-atom 10-const
   ISPIN  =      1    spin polarized calculation?
   LNONCOLLINEAR =      F non collinear calculations
   LSORBIT =      F    spin-orbit coupling
   INIWAV =      1    electr: 0-lowe 1-rand  2-diag
   LASPH  =      T    aspherical Exc in radial PAW
   METAGGA=      F    non-selfconsistent MetaGGA calc.

 Electronic Relaxation 1
   ENCUT  =  800.0 eV  58.80 Ry    7.67 a.u.   9.70  9.70  9.70*2*pi/ulx,y,z
   ENINI  =  800.0     initial cutoff
   ENAUG  =  980.2 eV  augmentation charge cutoff
   NELM   =     60;   NELMIN=  4; NELMDL= -5     # of ELM steps
   EDIFF  = 0.1E-05   stopping-criterion for ELM
   LREAL  =      F    real-space projection
   NLSPLINE    = F    spline interpolate recip. space projectors
   LCOMPAT=      F    compatible to vasp.4.4
   GGA_COMPAT  = T    GGA compatible to vasp.4.4-vasp.4.6
   LMAXPAW     = -100 max onsite density
   LMAXMIX     =    2 max onsite mixed and CHGCAR
   VOSKOWN=      0    Vosko Wilk Nusair interpolation
   ROPT   =    0.00000   0.00000
 Ionic relaxation
   EDIFFG = -.1E-01   stopping-criterion for IOM
   NSW    =    200    number of steps for IOM
   NBLOCK =      1;   KBLOCK =    200    inner block; outer block
   IBRION =      2    ionic relax: 0-MD 1-quasi-New 2-CG
   NFREE  =      1    steps in history (QN), initial steepest desc. (CG)
   ISIF   =      3    stress and relaxation
   IWAVPR =     11    prediction:  0-non 1-charg 2-wave 3-comb
   ISYM   =      2    0-nonsym 1-usesym 2-fastsym
   LCORR  =      T    Harris-Foulkes like correction to forces

   POTIM  = 0.5000    time-step for ionic-motion
   TEIN   =    0.0    initial temperature
   TEBEG  =    0.0;   TEEND  =   0.0 temperature during run
   SMASS  =  -3.00    Nose mass-parameter (am)
   estimated Nose-frequenzy (Omega)   =  0.10E-29 period in steps = 0.13E+47 mass=  -0.404E-27a.u.
   SCALEE = 1.0000    scale energy and forces
   NPACO  =    256;   APACO  = 16.0  distance and # of slots for P.C.
   PSTRESS=    0.0 pullay stress

  Mass of Ions in am
   POMASS =  24.30 16.00
  Ionic Valenz
   ZVAL   =  10.00  6.00
  Atomic Wigner-Seitz radii
  virtual crystal weights
   VCA    =   1.00  1.00
   NELECT =      64.0000    total number of electrons
   NUPDOWN=      -1.0000    fix difference up-down

 DOS related values:
   EMIN   =  10.00;   EMAX   =-10.00  energy-range for DOS
   EFERMI =   0.00
   ISMEAR =     0;   SIGMA  =   0.05  broadening in eV -4-tet -1-fermi 0-gaus

 Electronic relaxation 2 (details)
   IALGO  =     68    algorithm
[...]
   0.11111111  0.11111111  0.00000000       0.016
   0.22222222  0.11111111  0.00000000       0.033
   0.33333333  0.11111111  0.00000000       0.033
   0.44444444  0.11111111  0.00000000       0.033
   0.22222222  0.22222222  0.00000000       0.016
   0.33333333  0.22222222  0.00000000       0.033
   0.44444444  0.22222222  0.00000000       0.033
   0.33333333  0.33333333  0.00000000       0.016
   0.44444444  0.33333333  0.00000000       0.033
   0.44444444  0.44444444  0.00000000       0.016
   0.11111111  0.11111111  0.11111111       0.011
   0.22222222  0.11111111  0.11111111       0.033
   0.33333333  0.11111111  0.11111111       0.033
   0.44444444  0.11111111  0.11111111       0.033
   0.22222222  0.22222222  0.11111111       0.033
   0.33333333  0.22222222  0.11111111       0.066
   0.44444444  0.22222222  0.11111111       0.066
   0.33333333  0.33333333  0.11111111       0.033
   0.44444444  0.33333333  0.11111111       0.066
   0.44444444  0.44444444  0.11111111       0.033
   0.22222222  0.22222222  0.22222222       0.011
   0.33333333  0.22222222  0.22222222       0.033
   0.44444444  0.22222222  0.22222222       0.033
   0.33333333  0.33333333  0.22222222       0.033
   0.44444444  0.33333333  0.22222222       0.066
   0.44444444  0.44444444  0.22222222       0.033
   0.33333333  0.33333333  0.33333333       0.011
   0.44444444  0.33333333  0.33333333       0.033
   0.44444444  0.44444444  0.33333333       0.033
   0.44444444  0.44444444  0.44444444       0.011

 position of ions in fractional coordinates (direct lattice)
   0.00000000  0.00000000  0.00000000
   0.00000000  0.50000000  0.50000000
   0.50000000  0.00000000  0.50000000
   0.50000000  0.50000000  0.00000000
   0.50000000  0.00000000  0.00000000
   0.50000000  0.50000000  0.50000000
   0.00000000  0.00000000  0.50000000
   0.00000000  0.50000000  0.00000000

 position of ions in cartesian coordinates  (Angst):
   0.00000000  0.00000000  0.00000000
   0.00000000  2.10322847  2.10322847
   2.10322847  0.00000000  2.10322847
   2.10322847  2.10322847  0.00000000
   2.10322847  0.00000000  0.00000000
   2.10322847  2.10322847  2.10322847
   0.00000000  0.00000000  2.10322847
   0.00000000  2.10322847  0.00000000

 k-point   1 :   0.0000 0.0000 0.0000  plane waves:    3887
 k-point   2 :   0.1111 0.0000 0.0000  plane waves:    3823
 k-point   3 :   0.2222 0.0000 0.0000  plane waves:    3831
 k-point   4 :   0.3333 0.0000 0.0000  plane waves:    3824
 k-point   5 :   0.4444 0.0000 0.0000  plane waves:    3836
 k-point   6 :   0.1111 0.1111 0.0000  plane waves:    3827
 k-point   7 :   0.2222 0.1111 0.0000  plane waves:    3838
 k-point   8 :   0.3333 0.1111 0.0000  plane waves:    3816
 k-point   9 :   0.4444 0.1111 0.0000  plane waves:    3843
 k-point  10 :   0.2222 0.2222 0.0000  plane waves:    3826
 k-point  11 :   0.3333 0.2222 0.0000  plane waves:    3824
 k-point  12 :   0.4444 0.2222 0.0000  plane waves:    3812
 k-point  13 :   0.3333 0.3333 0.0000  plane waves:    3820
 k-point  14 :   0.4444 0.3333 0.0000  plane waves:    3825
 k-point  15 :   0.4444 0.4444 0.0000  plane waves:    3846
 k-point  16 :   0.1111 0.1111 0.1111  plane waves:    3827
 k-point  17 :   0.2222 0.1111 0.1111  plane waves:    3825
 k-point  18 :   0.3333 0.1111 0.1111  plane waves:    3809
 k-point  19 :   0.4444 0.1111 0.1111  plane waves:    3829
 k-point  20 :   0.2222 0.2222 0.1111  plane waves:    3821
 k-point  21 :   0.3333 0.2222 0.1111  plane waves:    3833
 k-point  22 :   0.4444 0.2222 0.1111  plane waves:    3823
 k-point  23 :   0.3333 0.3333 0.1111  plane waves:    3817
 k-point  24 :   0.4444 0.3333 0.1111  plane waves:    3827
 k-point  25 :   0.4444 0.4444 0.1111  plane waves:    3821
 k-point  26 :   0.2222 0.2222 0.2222  plane waves:    3827
 k-point  27 :   0.3333 0.2222 0.2222  plane waves:    3834
 k-point  28 :   0.4444 0.2222 0.2222  plane waves:    3820
 k-point  29 :   0.3333 0.3333 0.2222  plane waves:    3825
 k-point  30 :   0.4444 0.3333 0.2222  plane waves:    3812
 k-point  31 :   0.4444 0.4444 0.2222  plane waves:    3824
 k-point  32 :   0.3333 0.3333 0.3333  plane waves:    3830
 k-point  33 :   0.4444 0.3333 0.3333  plane waves:    3824
 k-point  34 :   0.4444 0.4444 0.3333  plane waves:    3824
 k-point  35 :   0.4444 0.4444 0.4444  plane waves:    3840

 maximum and minimum number of plane-waves per node :       296      254

 maximum number of plane-waves:      3887
 maximum index in each direction:
   IXMAX=    9   IYMAX=    9   IZMAX=    9
   IXMIN=  -10   IYMIN=  -10   IZMIN=  -10

 parallel 3D FFT for wavefunctions:
    minimum data exchange during FFTs selected (reduces bandwidth)
 parallel 3D FFT for charge:
    minimum data exchange during FFTs selected (reduces bandwidth)

 Broyden mixing: mesh for mixing (old mesh)
   NGX = 19   NGY = 19   NGZ = 19
  (NGX  = 80   NGY  = 80   NGZ  = 80)
  gives a total of   6859 points

 initial charge density was supplied:
 charge density of overlapping atoms calculated
 number of electron      64.0000000 magnetization
 keeping initial charge density in first step

 Maximum index for augmentation-charges          593 (set IRDMAX)

 First call to EWALD:  gamma=   0.421
 Maximum number of real-space cells 3x 3x 3
 Maximum number of reciprocal cells 3x 3x 3

--------------------------------------- Iteration      1(   1)  ---------------------------------------

 eigenvalue-minimisations  :  2808
 total energy-change (2. order) : 0.9807640E+03  (-0.5345592E+04)
 number of electron      64.0000000 magnetization
 augmentation part       64.0000000 magnetization

 Free energy of the ion-electron system (eV)
  alpha Z        PSCENC =       329.12652186
  Ewald energy   TEWEN  =     -5164.39007194
  -Hartree energ DENC   =     -2339.14419268
  -exchange      EXHF   =         0.00000000
  -V(xc)+E(xc)   XCENC  =       440.66194106
  PAW double counting   =      6079.50408580    -6437.00359990
  entropy T*S    EENTRO =        -0.00259043
  eigenvalues    EBANDS =      -571.18460498
  atomic energy  EATOM  =      8643.19652899
  Solvation  Ediel_sol  =         0.00000000
  free energy    TOTEN  =       980.76401779 eV

  energy without entropy =      980.76660822  energy(sigma->0) =      980.76531301

[...]

 eigenvalue-minimisations  :  3192
 total energy-change (2. order) :-0.9814297E+03  (-0.9502317E+03)
 number of electron      64.0000000 magnetization
 augmentation part       64.0000000 magnetization

[...]

 Broyden mixing:
  rms(total) = 0.15206E+01    rms(broyden)= 0.15204E+01
  rms(prec ) = 0.33270E+01
  weight for this iteration     100.00

[...]

 eigenvalues of (default mixing * dielectric matrix)
  average eigenvalue GAMMA=   1.2369
  1.2369

[...]

 eigenvalue-minimisations  :  3453
 total energy-change (2. order) : 0.8058928E-01  (-0.2532167E-01)
 number of electron      63.9999923 magnetization
 augmentation part       17.5302775 magnetization

[...]

WARNING in EDDRMM: call to ZHEGV failed, returncode =   6  3      2

[...]

 Broyden mixing:
  rms(total) = 0.25975E-04    rms(broyden)= 0.25974E-04
  rms(prec ) = 0.55324E-04
  weight for this iteration     100.00

 eigenvalues of (default mixing * dielectric matrix)
  average eigenvalue GAMMA=   1.5518
  5.9371  4.4491  2.8823  2.5830  2.5830  2.3743  1.6260  0.3831  1.1181  1.1181
  1.0061  1.0061  0.9285  0.9285  0.8995  0.8995  0.6529  0.6097  0.6097  0.5529
  0.4958  0.4958

[...]

--------------------------------------- Iteration      1(  28)  ---------------------------------------

 eigenvalue-minimisations  :  2429
 total energy-change (2. order) :-0.8801671E-06  (-0.6482981E-06)
 number of electron      63.9999922 magnetization
 augmentation part       17.5620177 magnetization

 Free energy of the ion-electron system (eV)
  alpha Z        PSCENC =       329.12652186
  Ewald energy   TEWEN  =     -5164.39007194
  -Hartree energ DENC   =     -2324.72925909
  -exchange      EXHF   =         0.00000000
  -V(xc)+E(xc)   XCENC  =       447.58514530
  PAW double counting   =      6270.10349804    -6682.72035419
  entropy T*S    EENTRO =        -0.00000000
  eigenvalues    EBANDS =     -1582.81169049
  atomic energy  EATOM  =      8643.19652899
  Solvation  Ediel_sol  =         0.00000000
  free energy    TOTEN  =       -64.63968152 eV

  energy without entropy =      -64.63968152  energy(sigma->0) =      -64.63968152

 average (electrostatic) potential at core
  the test charge radii are     0.7298  0.7215
  (the norm of the test charge is              1.0000)
       1 -49.5349       2 -49.5349       3 -49.5349       4 -49.5349       5 -73.5258
       6 -73.5258       7 -73.5258       8 -73.5258

 E-fermi :   2.7733     XC(G=0): -12.0642     alpha+bet :-12.8392

 Fermi energy:         2.7733057822

 k-point     1 :       0.0000    0.0000    0.0000
  band No.  band energies     occupation
      1     -72.4203      2.00000
      2     -72.4097      2.00000
      3     -72.4097      2.00000
      4     -72.4097      2.00000
      5     -37.5810      2.00000
      6     -37.5810      2.00000
      7     -37.5810      2.00000
      8     -37.5378      2.00000
      9     -37.5378      2.00000
     10     -37.5378      2.00000
     11     -37.5378      2.00000
     12     -37.5378      2.00000
     13     -37.5378      2.00000
     14     -37.5094      2.00000
     15     -37.5094      2.00000
     16     -37.5094      2.00000
     17     -15.6746      2.00000
     18     -14.1780      2.00000
     19     -14.1780      2.00000
     20     -14.1780      2.00000
     21      -1.5556      2.00000
     22      -1.5556      2.00000
     23      -1.5556      2.00000
     24       1.1620      2.00000
     25       1.1620      2.00000
     26       1.1620      2.00000
     27       1.1620      2.00000
     28       1.1620      2.00000
     29       1.1620      2.00000
     30       2.5329      2.00000
     31       2.5329      2.00000
     32       2.5329      2.00000
     33       8.2205      0.00000
     34      12.5819      0.00000
     35      12.5819      0.00000
     36      12.5819      0.00000
     37      13.7340      0.00000
     38      13.7385      0.00000
     39      14.0901      0.00000
     40      16.8921      0.00000

[...]

 k-point    35 :       0.4444    0.4444    0.4444
  band No.  band energies     occupation
      1     -72.4124      2.00000
      2     -72.4121      2.00000
      3     -72.4121      2.00000
      4     -72.4121      2.00000
      5     -37.5946      2.00000
      6     -37.5946      2.00000
      7     -37.5946      2.00000
      8     -37.5934      2.00000
      9     -37.5190      2.00000
     10     -37.5190      2.00000
     11     -37.5190      2.00000
     12     -37.5182      2.00000
     13     -37.5182      2.00000
     14     -37.5182      2.00000
     15     -37.5174      2.00000
     16     -37.5174      2.00000
     17     -14.4334      2.00000
     18     -14.3826      2.00000
     19     -14.3826      2.00000
     20     -14.3826      2.00000
     21      -2.0274      2.00000
     22      -2.0274      2.00000
     23      -2.0274      2.00000
     24      -1.9699      2.00000
     25       1.7465      2.00000
     26       1.7465      2.00000
     27       1.7465      2.00000
     28       1.8309      2.00000
     29       1.8309      2.00000
     30       1.8309      2.00000
     31       1.8728      2.00000
     32       1.8728      2.00000
     33      11.3805      0.00000
     34      11.5422      0.00000
     35      11.5422      0.00000
     36      11.5422      0.00000
     37      16.3609      0.00000
     38      16.3903      0.00000
     39      16.3931      0.00000
     40      16.3966      0.00000

 soft charge-density along one line, spin component           1
         0         1         2         3         4         5         6         7         8         9
 total charge-density along one line

------------------------ aborting loop because EDIFF is reached ----------------------------------------

 total charge

# of ion       s       p       d       tot
    1        2.063   6.009   0.036   8.108
    2        2.063   6.009   0.036   8.108
    3        2.063   6.009   0.036   8.108
    4        2.063   6.009   0.036   8.108
    5        1.541   3.595   0.000   5.136
    6        1.541   3.595   0.000   5.136
    7        1.541   3.595   0.000   5.136
    8        1.541   3.595   0.000   5.136
tot         14.416  38.415   0.144  52.976

  FORCE on cell =-STRESS in cart. coord.  units (eV):
  Direction    XX          YY          ZZ          XY          YZ          ZX
  Alpha Z   329.12652   329.12652   329.12652
  Ewald   -1721.46585 -1721.46585 -1721.46585     0.00000    -0.00000    -0.00000
  Hartree   774.90997   774.90997   774.90997    -0.00000    -0.00000    -0.00000
  E(xc)    -433.60689  -433.44574  -433.44243    -0.09616    -0.08772    -0.06182
  Local     273.50464   273.50464   273.50464     0.00000     0.00000     0.00000
  n-local  -733.15965  -727.35728  -721.20123     0.49158     0.42354     0.30150
  augment   129.40545   129.40545   129.40545     0.00000     0.00000     0.00000
  Kinetic  1375.32968  1376.75035  1373.82142    -3.33220    -3.02321    -2.13622
  Fock        0.00000     0.00000     0.00000     0.00000     0.00000     0.00000
  Total       0.04347     0.04347     0.04347    -0.00000    -0.00000    -0.00000
  in kB       0.93571     0.93571     0.93571    -0.00000    -0.00000    -0.00000

 VOLUME and BASIS-vectors are now :
  energy-cutoff  :      800.00
  volume of cell :       74.43
      direct lattice vectors                 reciprocal lattice vectors
     4.206456931  0.000000000  0.000000000     0.237729761  0.000000000  0.000000000
     0.000000000  4.206456931  0.000000000     0.000000000  0.237729761  0.000000000
     0.000000000  0.000000000  4.206456931     0.000000000  0.000000000  0.237729761

  length of vectors
     4.206456931  4.206456931  4.206456931     0.237729761  0.237729761  0.237729761

 FORCES acting on ions
    electron-ion (+dipol)            ewald-force                    non-local-force                 convergence-correction
   0.440E-14 0.655E-13 -.650E-13   0.765E-14 -.897E-14 -.215E-13   0.890E-22 -.217E-21 0.259E-21   -.485E-12 0.266E-13 -.513E-12
   0.440E-14 0.117E-12 0.258E-14   0.737E-14 0.134E-13 -.432E-14   -.222E-21 -.227E-21 -.163E-21   -.510E-12 0.191E-13 0.190E-12
   0.479E-13 0.660E-13 0.151E-12   0.153E-13 -.583E-14 -.443E-14   0.226E-21 -.153E-21 -.121E-21   0.252E-12 0.674E-13 0.218E-12
   0.486E-13 0.510E-11 -.573E-11   0.150E-13 0.165E-13 -.928E-14   -.164E-21 -.650E-22 -.316E-21   0.259E-12 0.653E-13 -.505E-12
   0.654E-13 0.245E-13 -.116E-11   -.844E-14 -.906E-14 0.533E-14   0.554E-22 -.988E-23 0.271E-22   0.158E-12 0.536E-13 -.258E-12
   0.653E-13 0.217E-11 0.992E-12   -.830E-14 -.879E-15 0.124E-13   -.634E-22 0.752E-22 0.907E-24   0.161E-12 0.445E-13 0.202E-12
   0.209E-13 0.233E-13 0.805E-13   -.164E-13 -.770E-14 0.124E-13   -.256E-22 0.469E-22 0.393E-22   -.293E-12 0.524E-13 0.201E-12
   0.208E-13 0.693E-13 0.369E-13   -.163E-13 0.481E-15 0.621E-14   0.321E-23 0.379E-22 -.931E-23   -.304E-12 0.449E-13 -.267E-12
   0.278E-12 0.764E-11 -.569E-11   -.410E-14 -.201E-14 -.322E-14   -.101E-21 -.512E-21 -.282E-21   -.762E-12 0.374E-12 -.732E-12

 POSITION                                       TOTAL-FORCE (eV/Angst)
      0.00000      0.00000      0.00000        -0.000000     -0.000000      0.000000
      0.00000      2.10323      2.10323         0.000000      0.000000     -0.000000
      2.10323      0.00000      2.10323         0.000000     -0.000000     -0.000000
      2.10323      2.10323      0.00000        -0.000000     -0.000000      0.000000
      2.10323      0.00000      0.00000        -0.000000      0.000000     -0.000000
      2.10323      2.10323      2.10323        -0.000000      0.000000     -0.000000
      0.00000      0.00000      2.10323         0.000000      0.000000     -0.000000
      0.00000      2.10323      0.00000        -0.000000      0.000000      0.000000
    total drift:                               -0.000000      0.000000     -0.000000

  FREE ENERGIE OF THE ION-ELECTRON SYSTEM (eV)
  free  energy   TOTEN  =       -64.63968152 eV

  energy  without entropy=      -64.63968152  energy(sigma->0) =      -64.63968152

 reached required accuracy - stopping structural energy minimisation

 total charge

# of ion       s       p       d       tot
    1        2.063   6.009   0.036   8.108
    2        2.063   6.009   0.036   8.108
    3        2.063   6.009   0.036   8.108
    4        2.063   6.009   0.036   8.108
    5        1.541   3.595   0.000   5.136
    6        1.541   3.595   0.000   5.136
    7        1.541   3.595   0.000   5.136
    8        1.541   3.595   0.000   5.136
tot         14.416  38.415   0.144  52.976