 vasp.6.2.0 18Jan21 (build Mar 03 2021 13:27:41) complex

 executed on             LinuxIFC date 2021.07.14  17:04:18

 INCAR:
   SYSTEM = TiO2-rutile
   ISMEAR = 0
   SIGMA = 0.05
   EDIFF = 1E-5
   ALGO = Fast
   ISTART = 1
   ISYM = 0
   IBRION = -1
   NSW = 0
   EDIFFG = -0.01
   ENCUT = 500
   PREC = Accurate
   LASPH = .TRUE.
   LREAL = Auto
   ISPIN = 1
   NELM = 500
   NELMIN = 4
   NCORE = 20
   LWAVE = .FALSE.
   LCHARG = .FALSE.
   LORBIT = 11

 POTCAR:    PAW Ti_sv 26Sep2005
 POTCAR:    PAW O 22Mar2012
 POTCAR:    PAW Ti_sv 26Sep2005
   VRHFIN =Ti: 3s3p4s3d

   TITEL  = PAW Ti_sv 26Sep2005
   POMASS =   47.880; ZVAL   =   12.000    mass and valenz
   ENMAX  =  274.719; ENMIN  =  206.039 eV

   TITEL  = PAW O 22Mar2012
   POMASS =   16.000; ZVAL   =    6.000    mass and valenz
   ENMAX  =  400.000; ENMIN  =  300.000 eV

 Optimization of the real space projectors (new method)

 maximal supplied QI-value         = 16.25
 optimisation between [QCUT,QGAM] = [ 11.38, 22.75] = [ 36.24,144.96] Ry
 Optimized for a Real-space Cutoff    1.27 Angstroem

   l    n(q)    QCUT    max X(q) W(low)/X(q) W(high)/X(q)  e(spline)
   0      9    11.376    12.197    0.54E-04    0.21E-04    0.24E-07
   0      9    11.376    11.139    0.92E-04    0.47E-05    0.33E-07
   1      8    11.376     4.011    0.10E-03    0.98E-04    0.29E-07
   1      8    11.376     6.084    0.81E-04    0.18E-03    0.11E-06
   2      8    11.376    46.184    0.13E-03    0.88E-03    0.24E-06
   2      8    11.376    41.673    0.13E-03    0.85E-03    0.23E-06
 Optimization of the real space projectors (new method)

 maximal supplied QI-value         = 24.76
 optimisation between [QCUT,QGAM] = [ 11.39, 22.77] = [ 36.31,145.25] Ry
 Optimized for a Real-space Cutoff    1.10 Angstroem

   l    n(q)    QCUT    max X(q) W(low)/X(q) W(high)/X(q)  e(spline)
   0      7    11.387    20.659    0.22E-03    0.50E-03    0.19E-06
   0      7    11.387    15.633    0.22E-03    0.53E-03    0.20E-06
   1      7    11.387     5.864    0.22E-03    0.73E-03    0.24E-06
   1      7    11.387     5.285    0.18E-03    0.60E-03    0.21E-06
  PAW Ti_sv 26Sep2005                   :
  PAW O 22Mar2012                       :

 POSCAR: Ti  O
  positions in direct lattice
  velocities in cartesian coordinates
 exchange correlation table for  LEXCH =        2
   RHO(1)=    0.500       N(1)  =     2000
   RHO(2)=  100.500       N(2)  =     4000

 ion  position               nearest neighbor table
   1  0.250  0.125  0.110-  67 1.93  83 1.93  68 1.93  84 1.93  66 1.96  65 1.96
   2  0.000  0.000  0.110-  65 1.93 112 1.93 129 1.93 177 1.93 143 1.96  71 1.96
   3  0.500  0.125  0.360- 134 1.93 150 1.93  72 1.93  88 1.93  69 1.96 133 1.96
   4  0.250  0.000  0.360-  70 1.93 117 1.93 116 1.93  69 1.93  68 1.96  75 1.96
   5  0.250  0.125  0.610-  75 1.93  91 1.93  76 1.93  92 1.93  74 1.96  73 1.96
   6  0.000  0.000  0.610-  73 1.93 120 1.93 137 1.93 185 1.93 135 1.96  79 1.96
   7  0.500  0.125  0.860- 142 1.93 158 1.93  80 1.93  96 1.93  77 1.96 141 1.96
   8  0.250  0.000  0.860-  78 1.93 125 1.93 124 1.93  77 1.93  76 1.96  67 1.96
   9  0.250  0.375  0.110-  83 1.93  99 1.93  84 1.93 100 1.93  82 1.96  81 1.96
  10  0.000  0.250  0.110-  65 1.93  81 1.93 129 1.93 145 1.93 159 1.96  87 1.96
  11  0.500  0.375  0.360- 150 1.93 166 1.93  88 1.93  85 1.96 149 1.96
  12  0.250  0.250  0.360-  70 1.93  86 1.93  85 1.93  69 1.93  84 1.96  91 1.96
  13  0.250  0.375  0.610-  91 1.93 106 1.93  92 1.93 107 1.93  90 1.96  89 1.96
  14  0.000  0.250  0.610-  73 1.93  89 1.93 137 1.93 153 1.93 151 1.96  95 1.96
  15  0.500  0.375  0.860- 158 1.93 174 1.93  96 1.93 111 1.93  93 1.96 157 1.96
  16  0.250  0.250  0.860-  78 1.93  94 1.93  93 1.93  77 1.93  92 1.96  83 1.96
  17  0.250  0.625  0.110-  99 1.93 114 1.93 100 1.93 115 1.93  98 1.96  97 1.96
  18  0.000  0.500  0.110-  81 1.93  97 1.93 145 1.93 161 1.93 175 1.96 103 1.96
  19  0.500  0.625  0.360- 166 1.93 182 1.93 119 1.93 101 1.96 165 1.96
  20  0.250  0.500  0.360-  86 1.93 102 1.93 101 1.93  85 1.93 100 1.96 106 1.96
  21  0.250  0.625  0.610- 106 1.93 122 1.93 107 1.93 123 1.93 105 1.96 104 1.96
  22  0.000  0.500  0.610-  89 1.93 104 1.93 153 1.93 169 1.93 167 1.96 110 1.96
  23  0.500  0.625  0.860- 174 1.93 190 1.93 111 1.93 127 1.93 108 1.96 173 1.96
  24  0.250  0.500  0.860-  94 1.93 109 1.93 108 1.93  93 1.93 107 1.96  99 1.96
  25  0.250  0.875  0.110-  67 1.93 114 1.93  68 1.93 115 1.93 113 1.96 112 1.96
  26  0.000  0.750  0.110-  97 1.93 112 1.93 161 1.93 177 1.93 191 1.96 118 1.96
  27  0.500  0.875  0.360- 134 1.93 182 1.93  72 1.93 119 1.93 116 1.96 181 1.96
  28  0.250  0.750  0.360- 102 1.93 117 1.93 116 1.93 101 1.93 115 1.96 122 1.96
  29  0.250  0.875  0.610-  75 1.93 122 1.93  76 1.93 123 1.93 121 1.96 120 1.96
  30  0.000  0.750  0.610- 104 1.93 120 1.93 169 1.93 185 1.93 183 1.96 126 1.96
  31  0.500  0.875  0.860- 142 1.93 190 1.93  80 1.93 127 1.93 124 1.96 189 1.96
  32  0.250  0.750  0.860- 109 1.93 125 1.93 124 1.93 108 1.93 123 1.96 114 1.96
  33  0.750  0.125  0.110- 130 1.93 146 1.93 131 1.93 147 1.93 128 1.96 129 1.96
  34  0.500  0.000  0.110-  66 1.93 113 1.93 128 1.93 176 1.93  80 1.96 134 1.96
  35  0.000  0.125  0.360-  71 1.93  87 1.93 135 1.93 151 1.93 132 1.96  70 1.96
  36  0.750  0.000  0.360- 133 1.93 181 1.93 180 1.93 132 1.93 131 1.96 138 1.96
  37  0.750  0.125  0.610- 138 1.93 154 1.93 139 1.93 155 1.93 136 1.96 137 1.96
  38  0.500  0.000  0.610-  74 1.93 121 1.93 136 1.93 184 1.93  72 1.96 142 1.96
  39  0.000  0.125  0.860-  79 1.93  95 1.93 143 1.93 159 1.93 140 1.96  78 1.96
  40  0.750  0.000  0.860- 141 1.93 189 1.93 188 1.93 140 1.93 139 1.96 130 1.96
  41  0.750  0.375  0.110- 146 1.93 162 1.93 147 1.93 163 1.93 144 1.96 145 1.96
  42  0.500  0.250  0.110-  66 1.93  82 1.93 128 1.93 144 1.93  96 1.96 150 1.96
  43  0.000  0.375  0.360-  87 1.93 103 1.93 151 1.93 167 1.93 148 1.96  86 1.96
  44  0.750  0.250  0.360- 133 1.93 149 1.93 148 1.93 132 1.93 147 1.96 154 1.96
  45  0.750  0.375  0.610- 154 1.93 170 1.93 155 1.93 171 1.93 152 1.96 153 1.96
  46  0.500  0.250  0.610-  74 1.93  90 1.93 136 1.93 152 1.93  88 1.96 158 1.96
  47  0.000  0.375  0.860-  95 1.93 110 1.93 159 1.93 175 1.93 156 1.96  94 1.96
  48  0.750  0.250  0.860- 141 1.93 157 1.93 156 1.93 140 1.93 155 1.96 146 1.96
  49  0.750  0.625  0.110- 162 1.93 178 1.93 163 1.93 179 1.93 160 1.96 161 1.96
  50  0.500  0.500  0.110-  82 1.93  98 1.93 144 1.93 160 1.93 111 1.96 166 1.96
  51  0.000  0.625  0.360- 103 1.93 118 1.93 167 1.93 183 1.93 164 1.96 102 1.96
  52  0.750  0.500  0.360- 149 1.93 165 1.93 164 1.93 148 1.93 163 1.96 170 1.96
  53  0.750  0.625  0.610- 170 1.93 186 1.93 171 1.93 187 1.93 168 1.96 169 1.96
  54  0.500  0.500  0.610-  90 1.93 105 1.93 152 1.93 168 1.93 174 1.96
  55  0.000  0.625  0.860- 110 1.93 126 1.93 175 1.93 191 1.93 172 1.96 109 1.96
  56  0.750  0.500  0.860- 157 1.93 173 1.93 172 1.93 156 1.93 171 1.96 162 1.96
  57  0.750  0.875  0.110- 130 1.93 178 1.93 131 1.93 179 1.93 176 1.96 177 1.96
  58  0.500  0.750  0.110-  98 1.93 113 1.93 160 1.93 176 1.93 127 1.96 182 1.96
  59  0.000  0.875  0.360-  71 1.93 118 1.93 135 1.93 183 1.93 180 1.96 117 1.96
  60  0.750  0.750  0.360- 165 1.93 181 1.93 180 1.93 164 1.93 179 1.96 186 1.96
[...]
 177  0.902  0.875  0.110-   2 1.93  26 1.93  57 1.96
 178  0.750  0.750  0.012-  49 1.93  57 1.93  64 1.96
 179  0.750  0.750  0.208-  49 1.93  57 1.93  60 1.96
 180  0.848  0.875  0.360-  36 1.93  60 1.93  59 1.96
 181  0.652  0.875  0.360-  36 1.93  60 1.93  27 1.96
 182  0.500  0.750  0.262-  19 1.93  27 1.93  58 1.96
 183  0.000  0.750  0.458-  51 1.93  59 1.93  30 1.96
 184  0.598  0.875  0.610-  38 1.93  62 1.93  61 1.96
 185  0.902  0.875  0.610-   6 1.93  30 1.93  61 1.96
 186  0.750  0.750  0.512-  53 1.93  61 1.93  60 1.96
 187  0.750  0.750  0.708-  53 1.93  61 1.93  64 1.96
 188  0.848  0.875  0.860-  40 1.93  64 1.93  63 1.96
 189  0.652  0.875  0.860-  40 1.93  64 1.93  31 1.96
 190  0.500  0.750  0.762-  23 1.93  31 1.93  62 1.96
 191  0.000  0.750  0.958-  55 1.93  63 1.93  26 1.96

IMPORTANT INFORMATION: All symmetrisations will be switched off!
NOSYMM: (Re-)initialisation of all symmetry stuff for point group C_1.

                                     Primitive cell

  volume of cell :    1939.6039

  direct lattice vectors                    reciprocal lattice vectors
    12.881025995  0.000000000  0.000000000     0.077633567  0.000000000  0.000000000
     0.000000000 11.689936215  0.000000000     0.000000000  0.085543666  0.000000000
     0.000000000  0.000000000 12.881025995     0.000000000  0.000000000  0.077633567

  length of vectors
    12.881025995 11.689936215 12.881025995     0.077633567  0.085543666  0.077633567

  position of ions in fractional coordinates (direct lattice)
     0.250000000  0.125000000  0.109790444
     0.000000000  0.000000000  0.109790444
     0.500000000  0.125000000  0.359790444
     0.250000000  0.000000000  0.359790444
     0.250000000  0.125000000  0.609790444
     0.000000000  0.000000000  0.609790444
     0.500000000  0.125000000  0.859790444
     0.250000000  0.000000000  0.859790444
     0.250000000  0.375000000  0.109790444
     0.000000000  0.250000000  0.109790444
     0.500000000  0.375000000  0.359790444
     0.250000000  0.250000000  0.359790444
     0.250000000  0.375000000  0.609790444
     0.000000000  0.250000000  0.609790444
     0.500000000  0.375000000  0.859790444
     0.250000000  0.250000000  0.859790444
     0.250000000  0.625000000  0.109790444
     0.000000000  0.500000000  0.109790444
     0.500000000  0.625000000  0.359790444
     0.250000000  0.500000000  0.359790444
     0.250000000  0.625000000  0.609790444
     0.000000000  0.500000000  0.609790444
     0.500000000  0.625000000  0.859790444
     0.250000000  0.500000000  0.859790444
     0.250000000  0.875000000  0.109790444
     0.000000000  0.750000000  0.109790444
     0.500000000  0.875000000  0.359790444
     0.250000000  0.750000000  0.359790444
     0.250000000  0.875000000  0.609790444
     0.000000000  0.750000000  0.609790444
     0.500000000  0.875000000  0.859790444
     0.250000000  0.750000000  0.859790444
     0.750000000  0.125000000  0.109790444
     0.500000000  0.000000000  0.109790444
     0.000000000  0.125000000  0.359790444
     0.750000000  0.000000000  0.359790444
     0.750000000  0.125000000  0.609790444
     0.500000000  0.000000000  0.609790444
     0.000000000  0.125000000  0.859790444
     0.750000000  0.000000000  0.859790444
     0.750000000  0.375000000  0.109790444
     0.500000000  0.250000000  0.109790444
     0.000000000  0.375000000  0.359790444
     0.750000000  0.250000000  0.359790444
     0.750000000  0.375000000  0.609790444
     0.500000000  0.250000000  0.609790444
     0.000000000  0.375000000  0.859790444
     0.750000000  0.250000000  0.859790444
     0.750000000  0.625000000  0.109790444
     0.500000000  0.500000000  0.109790444
     0.000000000  0.625000000  0.359790444
     0.750000000  0.500000000  0.359790444
     0.750000000  0.625000000  0.609790444
     0.500000000  0.500000000  0.609790444
[...]
   -.122E+02 0.257E-04 0.118E+02   0.122E+02 -.252E-12 -.117E+02   0.169E-02 -.114E-04 -.256E-01   -.290E-03 -.177E-06 -.140E-04
   -.778E+01 0.530E+01 -.809E+01   0.781E+01 -.527E+01 0.809E+01   -.541E-02 -.118E-01 0.353E-02   -.216E-03 -.673E-04 -.878E-04
   -.118E-04 0.404E+01 -.576E+01   0.452E-11 -.401E+01 0.577E+01   0.404E-04 -.525E-02 -.663E-03   0.445E-05 -.565E-04 -.451E-04
   0.325E-04 0.315E+02 -.136E+02   0.602E-10 -.311E+02 0.135E+02   0.485E-04 -.119E+00 0.975E-02   -.488E-04 -.107E-02 0.375E-04
   -.309E+02 0.257E+02 -.130E+02   0.306E+02 -.255E+02 0.129E+02   0.746E-01 -.608E-01 0.148E-01   -.128E-03 -.718E-04 0.940E-04
   -.147E+02 0.119E+02 0.976E+01   0.146E+02 -.119E+02 -.976E+01   0.307E-01 -.207E-01 -.378E-02   -.771E-04 0.132E-03 0.531E-04
   0.198E-04 0.680E+01 0.633E+01   0.439E-11 -.676E+01 -.634E+01   -.103E-03 -.919E-02 0.694E-02   0.131E-04 0.745E-04 0.789E-04
   -.284E-04 0.664E+01 0.848E+01   0.601E-10 -.667E+01 -.838E+01   0.396E-04 0.116E-01 -.270E-01   0.958E-05 0.760E-04 -.288E-03
   -.876E+01 0.645E+01 0.784E+01   0.876E+01 -.645E+01 -.776E+01   -.443E-03 0.456E-03 -.195E-01   -.206E-03 0.157E-03 -.141E-03
   0.778E+01 -.530E+01 -.809E+01   -.781E+01 0.527E+01 0.809E+01   0.543E-02 0.118E-01 0.340E-02   0.229E-03 0.195E-03 -.110E-03
   -.233E-04 0.324E-04 -.988E+01   0.411E-11 -.182E-12 0.986E+01   -.126E-03 -.118E-04 0.599E-02   0.396E-04 -.240E-04 -.358E-03
   -.333E-04 -.496E+01 -.361E+01   0.597E-10 0.495E+01 0.360E+01   -.874E-04 0.147E-02 0.276E-02   0.885E-04 0.853E-04 0.262E-03
   0.124E+02 -.821E-04 -.563E+01   -.123E+02 -.192E-12 0.557E+01   -.122E-01 0.637E-04 0.181E-01   0.268E-03 0.121E-04 0.270E-03
   0.147E+02 -.119E+02 0.976E+01   -.146E+02 0.119E+02 -.976E+01   -.307E-01 0.206E-01 -.386E-02   0.115E-03 -.131E-03 0.722E-04
   0.990E-05 0.594E-04 0.119E+02   0.398E-11 0.480E-13 -.119E+02   0.152E-04 -.138E-04 0.503E-02   -.294E-04 -.716E-04 0.433E-03
   0.803E-05 -.245E+01 0.332E+01   0.595E-10 0.245E+01 -.330E+01   0.558E-04 0.461E-02 -.642E-02   -.131E-04 0.267E-04 -.227E-03
   0.597E+01 -.644E-04 0.477E+01   -.597E+01 -.156E-12 -.471E+01   -.109E-02 0.785E-04 -.116E-01   0.123E-03 0.277E-04 -.199E-03
   0.143E+02 -.634E+01 -.161E+02   -.143E+02 0.631E+01 0.161E+02   0.425E-02 0.141E-02 0.136E-01   0.120E-03 0.783E-04 0.118E-03
   0.239E-04 -.144E+02 -.210E+02   0.397E-11 0.144E+02 0.208E+02   0.211E-04 -.765E-03 0.123E+00   -.188E-04 0.168E-03 0.397E-03
   0.949E-05 -.557E+01 -.572E+01   0.602E-10 0.557E+01 0.570E+01   -.303E-04 -.273E-02 0.125E-01   0.663E-04 0.320E-04 0.192E-03
   0.309E+02 -.257E+02 -.130E+02   -.306E+02 0.255E+02 0.129E+02   -.747E-01 0.609E-01 0.147E-01   0.139E-03 -.618E-04 0.433E-04
   0.446E+02 -.200E+02 0.281E+02   -.442E+02 0.199E+02 -.280E+02   -.123E+00 0.121E-01 -.151E-01   0.349E-03 0.122E-03 -.288E-03
   -.163E-04 -.613E+02 0.441E+02   0.452E-11 0.608E+02 -.439E+02   -.546E-04 0.136E+00 -.129E+00   0.468E-04 -.472E-03 0.313E-03
   -.368E-04 -.255E+01 0.480E+01   0.599E-10 0.254E+01 -.478E+01   0.162E-03 -.635E-03 -.680E-02   -.204E-04 -.956E-04 -.178E-03
   0.876E+01 -.645E+01 0.784E+01   -.876E+01 0.645E+01 -.776E+01   0.411E-03 -.539E-03 -.197E-01   0.283E-03 -.158E-03 -.302E-04
   0.143E+02 0.634E+01 -.161E+02   -.143E+02 -.631E+01 0.161E+02   0.426E-02 -.148E-02 0.136E-01   0.939E-04 -.959E-04 0.131E-03
   0.155E-04 -.950E-04 -.397E+02   0.379E-11 -.915E-13 0.392E+02   -.746E-04 0.329E-05 0.225E+00   0.135E-04 0.497E-04 0.714E-03
   -.132E-04 0.557E+01 -.572E+01   0.607E-10 -.557E+01 0.570E+01   -.483E-05 0.270E-02 0.124E-01   0.147E-04 -.204E-04 0.200E-03
   0.737E+02 -.436E-04 -.300E+02   -.734E+02 -.258E-12 0.299E+02   -.223E+00 0.264E-04 0.105E+00   -.439E-03 0.567E-04 0.249E-03
   0.446E+02 0.200E+02 0.281E+02   -.442E+02 -.199E+02 -.280E+02   -.123E+00 -.120E-01 -.150E-01   0.323E-03 -.112E-03 -.282E-03
   -.108E-03 0.149E-06 0.271E+03   0.412E-11 -.539E-12 -.267E+03   -.639E-04 0.124E-04 -.297E+01   0.115E-04 0.223E-04 -.256E-03
   0.259E-04 0.255E+01 0.480E+01   0.603E-10 -.254E+01 -.478E+01   0.480E-04 0.639E-03 -.686E-02   -.262E-04 0.367E-04 -.202E-03
   0.122E+02 0.410E-04 0.118E+02   -.122E+02 0.210E-12 -.117E+02   -.167E-02 0.101E-04 -.257E-01   0.303E-03 0.186E-05 0.435E-04
   0.778E+01 0.530E+01 -.809E+01   -.781E+01 -.527E+01 0.809E+01   0.551E-02 -.118E-01 0.335E-02   0.183E-03 -.156E-03 -.783E-04
   0.501E-04 0.144E+02 -.210E+02   0.342E-11 -.144E+02 0.208E+02   -.307E-04 0.881E-03 0.123E+00   0.247E-04 -.227E-03 0.330E-03
   -.850E-04 0.496E+01 -.361E+01   0.610E-10 -.495E+01 0.360E+01   0.764E-04 -.151E-02 0.273E-02   0.471E-04 -.647E-04 0.281E-03
   0.309E+02 0.257E+02 -.130E+02   -.306E+02 -.255E+02 0.129E+02   -.747E-01 -.609E-01 0.147E-01   0.109E-03 -.442E-04 0.996E-04
[...]
   0.390E+01 0.283E+01 0.607E+02   -.391E+01 -.282E+01 -.650E+02   0.783E-02 -.236E-01 0.435E+01   0.794E-04 -.751E-04 -.330E-04
   0.847E+01 0.676E+01 -.712E+02   -.842E+01 -.670E+01 0.756E+02   -.578E-01 -.841E-01 -.432E+01   0.432E-04 -.159E-03 -.222E-04
   -.570E+02 0.402E+01 -.249E+01   0.614E+02 -.400E+01 0.246E+01   -.441E+01 -.501E-01 0.389E-01   0.114E-03 -.572E-04 0.666E-04
   0.707E+02 0.112E+02 -.523E+01   -.751E+02 -.111E+02 0.519E+01   0.427E+01 -.760E-01 0.459E-01   0.647E-04 -.143E-03 0.850E-04
   -.139E-03 0.226E+02 0.420E+02   0.917E-11 -.221E+02 -.464E+02   0.143E-03 -.696E+00 0.447E+01   -.364E-04 -.621E-03 0.382E-03
   -.896E-05 0.398E+01 -.628E+02   0.706E-11 -.397E+01 0.672E+02   -.211E-05 -.128E-01 -.434E+01   0.504E-06 0.543E-05 0.332E-04
   -.576E+02 0.112E+02 0.791E+01   0.620E+02 -.111E+02 -.789E+01   -.445E+01 -.155E+00 -.402E-01   0.263E-04 0.136E-04 0.111E-03
   0.664E+02 0.281E+01 0.287E+01   -.707E+02 -.280E+01 -.287E+01   0.433E+01 -.292E-01 0.116E-02   0.190E-04 0.120E-04 0.207E-04
   0.169E+02 0.141E+02 0.667E+02   -.168E+02 -.141E+02 -.711E+02   -.149E+00 -.103E+00 0.442E+01   0.743E-04 0.283E-04 0.110E-03
   0.851E+01 0.673E+01 -.544E+02   -.842E+01 -.670E+01 0.587E+02   -.120E+00 -.705E-01 -.444E+01   0.368E-04 0.687E-04 -.221E-04
   -.602E+02 0.159E+01 0.211E+01   0.645E+02 -.159E+01 -.209E+01   -.437E+01 -.185E-01 -.331E-01   0.544E-05 -.123E-05 -.704E-04
   0.657E+02 0.280E+01 0.358E+01   -.700E+02 -.280E+01 -.354E+01   0.437E+01 -.179E-01 -.528E-01   0.393E-04 0.111E-04 -.106E-03
   0.307E-04 0.984E+01 0.765E+02   0.897E-11 -.983E+01 -.808E+02   -.544E-04 -.100E-01 0.404E+01   0.191E-04 0.175E-03 -.385E-04
   -.166E-04 0.159E+01 -.628E+02   0.866E-11 -.158E+01 0.672E+02   0.250E-04 -.870E-02 -.439E+01   -.548E-05 -.607E-05 -.218E-04
   0.322E-03 0.620E-03 -.396E+01   -.132E-11 -.603E-12 0.298E-12   -.606E-03 -.135E-03 0.399E+01   -.573E-05 -.274E-03 0.144E-02

 POSITION                                       TOTAL-FORCE (eV/Angst)
      3.22026      1.46124      1.41421         0.021927     -0.016772     -0.006032
      0.00000      0.00000      1.41421         0.000008      0.000017      0.008900
      6.44051      1.46124      4.63447        -0.000093     -0.238117     -0.109723
      3.22026      0.00000      4.63447        -0.024126     -0.000027     -0.042259
      3.22026      1.46124      7.85473        -0.062353     -0.043903     -0.000435
      0.00000      0.00000      7.85473         0.000030     -0.000048     -0.005308
      6.44051      1.46124     11.07498        -0.000041      0.012795      0.076552
      3.22026      0.00000     11.07498        -0.003461     -0.000099      0.039743
      3.22026      4.38373      1.41421         0.015429     -0.021892     -0.027797
      0.00000      2.92248      1.41421        -0.000038     -0.017924      0.008604
      6.44051      4.38373      4.63447        -0.000080     -1.101063     -0.625239
      3.22026      2.92248      4.63447        -0.142796     -0.097144     -0.030074
      3.22026      4.38373      7.85473        -0.302443     -0.064483      0.043787
      0.00000      2.92248      7.85473        -0.000045     -0.030815     -0.004492
      6.44051      4.38373     11.07498        -0.000070      0.022297      0.158908
      3.22026      2.92248     11.07498         0.000093     -0.002902      0.061268
      3.22026      7.30621      1.41421         0.015406      0.021830     -0.027819
      0.00000      5.84497      1.41421        -0.000031     -0.000069      0.009457
      6.44051      7.30621      4.63447         0.000038      1.100913     -0.625253
      3.22026      5.84497      4.63447        -0.053925     -0.000049      0.005647
      3.22026      7.30621      7.85473        -0.302555      0.064523      0.043622
      0.00000      5.84497      7.85473         0.000018      0.000053     -0.000409
      6.44051      7.30621     11.07498         0.000054     -0.022165      0.158678
      3.22026      5.84497     11.07498         0.008208      0.000013      0.065959
      3.22026     10.22869      1.41421         0.021937      0.016857     -0.005928
      0.00000      8.76745      1.41421         0.000035      0.017899      0.008573
      6.44051     10.22869      4.63447         0.000034      0.238218     -0.109670
      3.22026      8.76745      4.63447        -0.142795      0.097308     -0.030024
      3.22026     10.22869      7.85473        -0.062277      0.043751     -0.000279
      0.00000      8.76745      7.85473        -0.000069      0.030779     -0.004404
      6.44051     10.22869     11.07498         0.000022     -0.012714      0.076529
      3.22026      8.76745     11.07498         0.000082      0.002882      0.061280
      9.66077      1.46124      1.41421        -0.021908     -0.016788     -0.006048
      6.44051      0.00000      1.41421        -0.000108     -0.000005     -0.018920
      0.00000      1.46124      4.63447        -0.000031     -0.001817     -0.012309
      9.66077      0.00000      4.63447         0.024156     -0.000007     -0.042320
      9.66077      1.46124      7.85473         0.062346     -0.043880     -0.000330
      6.44051      0.00000      7.85473        -0.000003     -0.000027      0.031780
      0.00000      1.46124     11.07498         0.000052     -0.004906      0.013445
      9.66077      0.00000     11.07498         0.003528      0.000041      0.039869
      9.66077      4.38373      1.41421        -0.015279     -0.021879     -0.027840
      6.44051      2.92248      1.41421         0.000028      0.016266     -0.116267
      0.00000      4.38373      4.63447         0.000047     -0.008147     -0.010350
      9.66077      2.92248      4.63447         0.142790     -0.097165     -0.030155
      9.66077      4.38373      7.85473         0.302393     -0.064463      0.043683
      6.44051      2.92248      7.85473        -0.000023     -0.399159      0.104391
      0.00000      4.38373     11.07498         0.000106     -0.006598      0.013487
      9.66077      2.92248     11.07498        -0.000094     -0.002960      0.061212
      9.66077      7.30621      1.41421        -0.015337      0.021775     -0.027866
      6.44051      5.84497      1.41421        -0.000044     -0.000043     -0.278110
      0.00000      7.30621      4.63447        -0.000002      0.008116     -0.010363
      9.66077      5.84497      4.63447         0.054074      0.000038      0.005505
      9.66077      7.30621      7.85473         0.302358      0.064623      0.043724
      6.44051      5.84497      7.85473        -0.000159      0.000034      1.328713
      0.00000      7.30621     11.07498         0.000049      0.006630      0.013399
      9.66077      5.84497     11.07498        -0.008211      0.000052      0.065935
      9.66077     10.22869      1.41421        -0.021877      0.016790     -0.006096
      6.44051      8.76745      1.41421         0.000046     -0.016248     -0.116236
      0.00000     10.22869      4.63447         0.000040      0.001805     -0.012316
      9.66077      8.76745      4.63447         0.142798      0.097015     -0.030110
[...]
     11.61777     10.22869      1.41421         0.002402     -0.016368     -0.002586
      9.66077      8.76745      0.15096         0.001387     -0.012564     -0.009365
      9.66077      8.76745      2.67747        -0.011199     -0.025557      0.037370
     10.92403     10.22869      4.63447        -0.009490     -0.026674      0.010328
      8.39751     10.22869      4.63447        -0.062217     -0.031723      0.007364
      6.44051      8.76745      3.37121        -0.000031     -0.245952      0.096350
      0.00000      8.76745      5.89773        -0.000009     -0.006089      0.011806
      7.70377     10.22869      7.85473        -0.048747     -0.084799     -0.017211
     11.61777     10.22869      7.85473        -0.027137     -0.018700     -0.001535
      9.66077      8.76745      6.59147        -0.037162     -0.046710      0.030206
      9.66077      8.76745      9.11798        -0.033139     -0.045468     -0.047147
     10.92403     10.22869     11.07498        -0.001890     -0.015370     -0.009938
      8.39751     10.22869     11.07498        -0.003002     -0.014741     -0.013995
      6.44051      8.76745      9.81173        -0.000003      0.000300     -0.217391
      0.00000      8.76745     12.33824         0.000005     -0.003523     -0.015427
    total drift:                               -0.000290      0.000212      0.031109

  FREE ENERGIE OF THE ION-ELECTRON SYSTEM (eV)
  free  energy   TOTEN  =     -1869.51853269 eV

  energy  without entropy=    -1869.50985073  energy(sigma->0) =    -1869.51419171

 total charge

# of ion       s       p       d       tot
    1        2.234   6.328   1.781  10.343
    2        2.234   6.328   1.780  10.343
    3        2.233   6.327   1.784  10.344
    4        2.234   6.328   1.781  10.344
    5        2.234   6.328   1.781  10.343
    6        2.234   6.328   1.780  10.343
    7        2.234   6.329   1.780  10.343
    8        2.234   6.329   1.780  10.342
    9        2.234   6.329   1.780  10.342
   10        2.234   6.329   1.780  10.342
   11        2.222   6.282   1.784  10.287
   12        2.234   6.328   1.784  10.345
   13        2.234   6.329   1.782  10.344
   14        2.234   6.328   1.780  10.343
   15        2.233   6.327   1.789  10.349
   16        2.234   6.329   1.780  10.342
   17        2.234   6.329   1.780  10.342
   18        2.234   6.329   1.780  10.342
   19        2.222   6.282   1.784  10.287
   20        2.233   6.328   1.785  10.346
   21        2.234   6.329   1.782  10.344
   22        2.234   6.328   1.780  10.343
   23        2.233   6.327   1.789  10.349
   24        2.234   6.329   1.780  10.343
   25        2.234   6.328   1.781  10.343
   26        2.234   6.329   1.780  10.342
   27        2.233   6.327   1.784  10.344
   28        2.234   6.328   1.784  10.345
   29        2.234   6.328   1.781  10.343
   30        2.234   6.328   1.780  10.343
   31        2.234   6.329   1.780  10.343
   32        2.234   6.329   1.780  10.342
   33        2.234   6.328   1.781  10.343
   34        2.234   6.329   1.780  10.342
   35        2.234   6.329   1.780  10.342
   36        2.234   6.328   1.781  10.344
   37        2.234   6.328   1.781  10.343
   38        2.234   6.328   1.781  10.343
   39        2.234   6.329   1.780  10.342
   40        2.234   6.329   1.780  10.342
   41        2.234   6.329   1.780  10.342
   42        2.234   6.327   1.787  10.348
   43        2.234   6.329   1.780  10.343
   44        2.234   6.328   1.784  10.345
   45        2.234   6.329   1.782  10.344
   46        2.234   6.329   1.779  10.342
   47        2.234   6.329   1.780  10.342
   48        2.234   6.329   1.780  10.342
   49        2.234   6.329   1.780  10.342
   50        2.234   6.327   1.784  10.344
   51        2.234   6.329   1.780  10.343
   52        2.233   6.328   1.785  10.346
   53        2.234   6.329   1.782  10.344
   54        2.224   6.282   1.791  10.297
   55        2.234   6.329   1.780  10.342
   56        2.234   6.329   1.780  10.343
   57        2.234   6.328   1.781  10.343
   58        2.233   6.327   1.787  10.348
   59        2.234   6.329   1.780  10.342
   60        2.234   6.328   1.784  10.345
[...]
  177        1.564   3.493   0.000   5.057
  178        1.564   3.493   0.000   5.057
  179        1.564   3.493   0.000   5.057
  180        1.564   3.493   0.000   5.057
  181        1.564   3.493   0.000   5.058
  182        1.567   3.482   0.000   5.049
  183        1.564   3.493   0.000   5.057
  184        1.564   3.493   0.000   5.057
  185        1.564   3.493   0.000   5.057
  186        1.564   3.493   0.000   5.057
  187        1.564   3.493   0.000   5.057
  188        1.564   3.493   0.000   5.057
  189        1.564   3.493   0.000   5.057
  190        1.564   3.494   0.000   5.058
  191        1.564   3.493   0.000   5.057
tot        341.611 848.432 114.0191304.061