 vasp.6.2.1 16May21 (build Oct 07 2021 14:09:27) complex

 executed on             LinuxIFC date 2022.01.20  00:15:11

 INCAR:
   SYSTEM = MgO-rocksalt
   ISMEAR = 0
   SIGMA = 0.05
   EDIFF = 1E-6
   ALGO = Fast
   GGA = PE
   ISTART = 0
   IBRION = 2
   NSW = 200
   EDIFFG = -0.01
   ISIF = 3
   ENCUT = 800
   PREC = Accurate
   LASPH = .TRUE.
   LREAL = .FALSE.
   ISPIN = 1
   NELM = 60
   NELMIN = 4
   NCORE = 19
   LWAVE = .FALSE.
   LCHARG = .FALSE.
   LORBIT = 11

 POTCAR:    PAW_PBE Mg_sv 12Apr2007
 POTCAR:    PAW_PBE O 08Apr2002
|           W    W    AA    RRRRR   N    N  II  N    N   GGGG   !!!           |
|           W    W   A  A   R    R  NN   N  II  NN   N  G    G  !!!           |
|           W    W  A    A  R    R  N N  N  II  N N  N  G       !!!           |
|           W WW W  AAAAAA  RRRRR   N  N N  II  N  N N  G  GGG   !            |
|           WW  WW  A    A  R   R   N   NN  II  N   NN  G    G                |
|           W    W  A    A  R    R  N    N  II  N    N   GGGG   !!!           |
|     For optimal performance we recommend to set                             |
|       NCORE = 2 up to number-of-cores-per-socket                            |
|     This setting can greatly improve the performance of VASP for DFT.       |
|     The default, NCORE=1 might be grossly inefficient on modern             |
|     multi-core architectures or massively parallel machines. Do your        |
|     Unfortunately you need to use the default for GW and RPA                |
|     calculations (for HF NCORE is supported but not extensively tested      |
|     yet).                                                                   |

   TITEL  = PAW_PBE Mg_sv 12Apr2007
   POMASS =   24.305; ZVAL   =   10.000    mass and valenz
   ENMAX  =  495.223; ENMIN  =  371.417 eV

   TITEL  = PAW_PBE O 08Apr2002
   POMASS =   16.000; ZVAL   =    6.000    mass and valenz
   ENMAX  =  400.000; ENMIN  =  300.000 eV

  PAW_PBE Mg_sv 12Apr2007               :
  PAW_PBE O 08Apr2002                   :

 POSCAR: Mg4 O4
  positions in direct lattice
  velocities in cartesian coordinates
 exchange correlation table for  LEXCH =        8
   RHO(1)=    0.500       N(1)  =     2000
   RHO(2)=  100.500       N(2)  =     4000

 ion  position               nearest neighbor table
   1  0.000  0.000  0.000-   5 2.10   7 2.10   8 2.10   7 2.10   8 2.10   5 2.10
   2  0.000  0.500  0.500-   6 2.10   7 2.10   8 2.10   8 2.10   7 2.10   6 2.10
   3  0.500  0.000  0.500-   5 2.10   6 2.10   7 2.10   5 2.10   6 2.10   7 2.10
   4  0.500  0.500  0.000-   5 2.10   6 2.10   8 2.10   6 2.10   5 2.10   8 2.10
   5  0.500  0.000  0.000-   1 2.10   3 2.10   4 2.10   3 2.10   4 2.10   1 2.10
   6  0.500  0.500  0.500-   2 2.10   3 2.10   4 2.10   4 2.10   3 2.10   2 2.10
   7  0.000  0.000  0.500-   1 2.10   2 2.10   3 2.10   1 2.10   2 2.10   3 2.10
   8  0.000  0.500  0.000-   1 2.10   2 2.10   4 2.10   2 2.10   1 2.10   4 2.10

  LATTYP: Found a simple cubic cell.
 ALAT       =     4.2064569314

  Lattice vectors:

 A1 = (   4.2064569314,   0.0000000000,   0.0000000000)
 A2 = (   0.0000000000,   4.2064569314,   0.0000000000)
 A3 = (   0.0000000000,   0.0000000000,   4.2064569314)

Analysis of symmetry for initial positions (statically):
 Subroutine PRICEL returns following result:

  LATTYP: Found a face centered cubic cell.
 ALAT       =     4.2064569314

[...]

   4 primitive cells build up your supercell.

 Routine SETGRP: Setting up the symmetry group for a
 simple cubic supercell.

 Subroutine GETGRP returns: Found 48 space group operations
 (whereof 48 operations were pure point group operations)
 out of a pool of 48 trial point group operations.

The static configuration has the point symmetry O_h .

Analysis of symmetry for dynamics (positions and initial velocities):
 Subroutine PRICEL returns following result:

  LATTYP: Found a face centered cubic cell.
 ALAT       =     4.2064569314

  Lattice vectors:

 A1 = (   2.1032284657,  -2.1032284657,   0.0000000000)
 A2 = (   2.1032284657,   0.0000000000,   2.1032284657)
 A3 = (   0.0000000000,  -2.1032284657,   2.1032284657)

   4 primitive cells build up your supercell.

 Routine SETGRP: Setting up the symmetry group for a
 simple cubic supercell.

 Subroutine GETGRP returns: Found 48 space group operations
 (whereof 48 operations were pure point group operations)
 out of a pool of 48 trial point group operations.

The dynamic configuration has the point symmetry O_h .

 Subroutine INISYM returns: Found 48 space group operations
 (whereof 48 operations are pure point group operations),
 and found     4 'primitive' translations

                                     Primitive cell

  volume of cell :      18.6076

  direct lattice vectors                    reciprocal lattice vectors
     2.103228466 -2.103228466  0.000000000     0.237729761 -0.237729761 -0.237729761
     2.103228466  0.000000000  2.103228466     0.237729761  0.237729761  0.237729761
     0.000000000 -2.103228466  2.103228466    -0.237729761 -0.237729761  0.237729761

  length of vectors
     2.974414221  2.974414221  2.974414221     0.411760024  0.411760024  0.411760024

  position of ions in fractional coordinates (direct lattice)
     0.000000000  0.000000000  0.000000000
     0.500000000  0.500000000  0.500000000

  ion indices of the primitive-cell ions
   primitive index   ion index
                 1           1
                 2           5

 KPOINTS: pymatgen v2020.8.13 with grid density =

Automatic generation of k-mesh.
 Grid dimensions read from file:
 generate k-points for:    9    9    9

 Generating k-lattice:

  Cartesian coordinates                     Fractional coordinates (reciprocal lattice)
     0.026414418  0.000000000  0.000000000     0.111111111  0.000000000  0.000000000
     0.000000000  0.026414418  0.000000000     0.000000000  0.111111111  0.000000000
     0.000000000  0.000000000  0.026414418     0.000000000  0.000000000  0.111111111

  Length of vectors
     0.026414418  0.026414418  0.026414418

  Shift w.r.t. Gamma in fractional coordinates (k-lattice)
     0.000000000  0.000000000  0.000000000

 Subroutine IBZKPT returns following result:

 Found     35 irreducible k-points:

 Following reciprocal coordinates:
            Coordinates               Weight
  0.000000  0.000000  0.000000      1.000000
  0.111111  0.000000  0.000000      6.000000
  0.222222  0.000000  0.000000      6.000000
  0.333333  0.000000  0.000000      6.000000
  0.444444  0.000000  0.000000      6.000000
  0.111111  0.111111  0.000000     12.000000
  0.222222  0.111111  0.000000     24.000000
  0.333333  0.111111  0.000000     24.000000
  0.444444  0.111111  0.000000     24.000000
  0.222222  0.222222  0.000000     12.000000
  0.333333  0.222222  0.000000     24.000000
  0.444444  0.222222  0.000000     24.000000
  0.333333  0.333333  0.000000     12.000000
  0.444444  0.333333  0.000000     24.000000
  0.444444  0.444444  0.000000     12.000000
  0.111111  0.111111  0.111111      8.000000
  0.222222  0.111111  0.111111     24.000000
  0.333333  0.111111  0.111111     24.000000
  0.444444  0.111111  0.111111     24.000000
  0.222222  0.222222  0.111111     24.000000
  0.333333  0.222222  0.111111     48.000000
  0.444444  0.222222  0.111111     48.000000
  0.333333  0.333333  0.111111     24.000000
  0.444444  0.333333  0.111111     48.000000
  0.444444  0.444444  0.111111     24.000000
  0.222222  0.222222  0.222222      8.000000
  0.333333  0.222222  0.222222     24.000000
  0.444444  0.222222  0.222222     24.000000
  0.333333  0.333333  0.222222     24.000000
  0.444444  0.333333  0.222222     48.000000
  0.444444  0.444444  0.222222     24.000000
  0.333333  0.333333  0.333333      8.000000
  0.444444  0.333333  0.333333     24.000000
  0.444444  0.444444  0.333333     24.000000
  0.444444  0.444444  0.444444      8.000000

 Following cartesian coordinates:
            Coordinates               Weight
  0.000000  0.000000  0.000000      1.000000
  0.026414  0.000000  0.000000      6.000000
  0.052829  0.000000  0.000000      6.000000
  0.079243  0.000000  0.000000      6.000000
  0.105658  0.000000  0.000000      6.000000
  0.026414  0.026414  0.000000     12.000000
  0.052829  0.026414  0.000000     24.000000
  0.079243  0.026414  0.000000     24.000000
  0.105658  0.026414  0.000000     24.000000
  0.052829  0.052829  0.000000     12.000000
  0.079243  0.052829  0.000000     24.000000
  0.105658  0.052829  0.000000     24.000000
  0.079243  0.079243  0.000000     12.000000
  0.105658  0.079243  0.000000     24.000000
  0.105658  0.105658  0.000000     12.000000
  0.026414  0.026414  0.026414      8.000000
  0.052829  0.026414  0.026414     24.000000
  0.079243  0.026414  0.026414     24.000000
  0.105658  0.026414  0.026414     24.000000
  0.052829  0.052829  0.026414     24.000000
  0.079243  0.052829  0.026414     48.000000
  0.105658  0.052829  0.026414     48.000000
  0.079243  0.079243  0.026414     24.000000
  0.105658  0.079243  0.026414     48.000000
  0.105658  0.105658  0.026414     24.000000
  0.052829  0.052829  0.052829      8.000000
  0.079243  0.052829  0.052829     24.000000
  0.105658  0.052829  0.052829     24.000000
  0.079243  0.079243  0.052829     24.000000
  0.105658  0.079243  0.052829     48.000000
  0.105658  0.105658  0.052829     24.000000
  0.079243  0.079243  0.079243      8.000000
  0.105658  0.079243  0.079243     24.000000
  0.105658  0.105658  0.079243     24.000000
  0.105658  0.105658  0.105658      8.000000

 SYSTEM =  MgO-rocksalt
 POSCAR =  Mg4 O4

 Startparameter for this run:
   NWRITE =      2    write-flag & timer
   PREC   = accura    normal or accurate (medium, high low for compatibility)
   ISTART =      0    job   : 0-new  1-cont  2-samecut
   ICHARG =      2    charge: 1-file 2-atom 10-const
   ISPIN  =      1    spin polarized calculation?
   LNONCOLLINEAR =      F non collinear calculations
   LSORBIT =      F    spin-orbit coupling
   INIWAV =      1    electr: 0-lowe 1-rand  2-diag
   LASPH  =      T    aspherical Exc in radial PAW
 Electronic Relaxation 1
   ENCUT  =  800.0 eV  58.80 Ry    7.67 a.u.   9.70  9.70  9.70*2*pi/ulx,y,z
   ENINI  =  800.0     initial cutoff
   ENAUG  =  980.2 eV  augmentation charge cutoff
   NELM   =     60;   NELMIN=  4; NELMDL= -5     # of ELM steps
   EDIFF  = 0.1E-05   stopping-criterion for ELM
   LREAL  =      F    real-space projection
   NLSPLINE    = F    spline interpolate recip. space projectors
   LCOMPAT=      F    compatible to vasp.4.4
   GGA_COMPAT  = T    GGA compatible to vasp.4.4-vasp.4.6
   LMAXPAW     = -100 max onsite density
   LMAXMIX     =    2 max onsite mixed and CHGCAR
   VOSKOWN=      0    Vosko Wilk Nusair interpolation
   ROPT   =    0.00000   0.00000
 Ionic relaxation
   EDIFFG = -.1E-01   stopping-criterion for IOM
   NSW    =    200    number of steps for IOM
   NBLOCK =      1;   KBLOCK =    200    inner block; outer block
   IBRION =      2    ionic relax: 0-MD 1-quasi-New 2-CG
   NFREE  =      1    steps in history (QN), initial steepest desc. (CG)
   ISIF   =      3    stress and relaxation
   IWAVPR =     11    prediction:  0-non 1-charg 2-wave 3-comb
[...]

 Maximum index for augmentation-charges         1146 (set IRDMAX)

 First call to EWALD:  gamma=   0.421
 Maximum number of real-space cells 3x 3x 3
 Maximum number of reciprocal cells 3x 3x 3

--------------------------------------- Iteration      1(   1)  ---------------------------------------

 eigenvalue-minimisations  :  2808
 total energy-change (2. order) : 0.9745893E+03  (-0.5226614E+04)
 number of electron      64.0000000 magnetization
 augmentation part       64.0000000 magnetization

 Free energy of the ion-electron system (eV)
  alpha Z        PSCENC =       329.12652186
  Ewald energy   TEWEN  =     -5164.39007194
  -Hartree energ DENC   =     -2339.14419268
  -exchange      EXHF   =         0.00000000
  -V(xc)+E(xc)   XCENC  =       377.66996541
  PAW double counting   =      6145.32585940    -6508.34924458
  entropy T*S    EENTRO =        -0.00218703
  eigenvalues    EBANDS =      -508.84388953
  atomic energy  EATOM  =      8643.19652899
  Solvation  Ediel_sol  =         0.00000000
  free energy    TOTEN  =       974.58928990 eV

  energy without entropy =      974.59147692  energy(sigma->0) =      974.59038341

[...]

 eigenvalue-minimisations  :  3200
 total energy-change (2. order) :-0.9495646E+03  (-0.9198036E+03)
 number of electron      64.0000000 magnetization
 augmentation part       64.0000000 magnetization

[...]

 Broyden mixing:
  rms(total) = 0.17248E+01    rms(broyden)= 0.17244E+01
  rms(prec ) = 0.36827E+01
  weight for this iteration     100.00

[...]

 eigenvalues of (default mixing * dielectric matrix)
  average eigenvalue GAMMA=   1.0183
  1.0183

[...]

 average (electrostatic) potential at core
  the test charge radii are     0.7298  0.7215
  (the norm of the test charge is              1.0000)
       1 -43.2998       2 -43.2998       3 -43.2998       4 -43.2998       5 -69.8109
       6 -69.8109       7 -69.8109       8 -69.8109

 E-fermi :   3.2154     XC(G=0): -11.4114     alpha+bet :-12.8392

 Fermi energy:         3.2153714170

 k-point     1 :       0.0000    0.0000    0.0000
  band No.  band energies     occupation
      1     -69.3089      2.00000
      2     -69.2976      2.00000
      3     -69.2976      2.00000
      4     -69.2976      2.00000
      5     -36.1096      2.00000
      6     -36.1096      2.00000
      7     -36.1096      2.00000
      8     -36.0645      2.00000
      9     -36.0645      2.00000
     10     -36.0645      2.00000
     11     -36.0645      2.00000
     12     -36.0645      2.00000
     13     -36.0645      2.00000
     14     -36.0349      2.00000
     15     -36.0349      2.00000
     16     -36.0349      2.00000
     17     -14.3246      2.00000
     18     -12.7835      2.00000
     19     -12.7835      2.00000
     20     -12.7835      2.00000
     21      -1.1251      2.00000
     22      -1.1251      2.00000
     23      -1.1251      2.00000
     24       1.5986      2.00000
     25       1.5986      2.00000
     26       1.5986      2.00000
     27       1.5986      2.00000
     28       1.5986      2.00000
     29       1.5986      2.00000
     30       2.9439      2.00000
     31       2.9439      2.00000
     32       2.9439      2.00000
     33       7.7444      0.00000
     34      12.0743      0.00000
     35      12.0743      0.00000
     36      12.0743      0.00000
     37      13.0205      0.00000
     38      13.0256      0.00000
     39      13.0613      0.00000
     40      16.0891      0.00000

[...]

 soft charge-density along one line, spin component           1
         0         1         2         3         4         5         6         7         8         9
 total charge-density along one line

------------------------ aborting loop because EDIFF is reached ----------------------------------------

 total charge

# of ion       s       p       d       tot
    1        2.072   6.012   0.041   8.125
    2        2.072   6.012   0.041   8.125
    3        2.072   6.012   0.041   8.125
    4        2.072   6.012   0.041   8.125
    5        1.538   3.566   0.000   5.105
    6        1.538   3.566   0.000   5.105
    7        1.538   3.566   0.000   5.105
    8        1.538   3.566   0.000   5.105
tot         14.441  38.312   0.165  52.918

  FORCE on cell =-STRESS in cart. coord.  units (eV):
  Direction    XX          YY          ZZ          XY          YZ          ZX
  Alpha Z   329.12652   329.12652   329.12652
  Ewald   -1721.46585 -1721.46585 -1721.46585     0.00000    -0.00000    -0.00000
  Hartree   772.85815   772.85815   772.85815    -0.00000    -0.00000    -0.00000
  E(xc)    -401.63606  -401.63606  -401.63606    -0.00000     0.00000    -0.00000
  Local     274.45966   274.45966   274.45966     0.00000     0.00000     0.00000
  n-local  -746.85960  -740.61744  -733.99704     0.60835     0.52017     0.37085
  augment   113.84122   113.84122   113.84122    -0.00000    -0.00000    -0.00000
  Kinetic  1375.78342  1377.33166  1374.07171    -3.71121    -3.34589    -2.36656
  Fock        0.00000     0.00000     0.00000     0.00000     0.00000     0.00000
  Total       2.42120     2.42120     2.42120    -0.00000     0.00000    -0.00000
  in kB      52.11856    52.11856    52.11856    -0.00000     0.00000    -0.00000

 VOLUME and BASIS-vectors are now :
  energy-cutoff  :      800.00
  volume of cell :       74.43
      direct lattice vectors                 reciprocal lattice vectors
     4.206456931  0.000000000  0.000000000     0.237729761  0.000000000  0.000000000
     0.000000000  4.206456931  0.000000000     0.000000000  0.237729761  0.000000000
     0.000000000  0.000000000  4.206456931     0.000000000  0.000000000  0.237729761

[...]

 FORCES acting on ions
    electron-ion (+dipol)            ewald-force                    non-local-force                 convergence-correction
   0.366E-13 0.101E-13 0.667E-13   0.765E-14 -.897E-14 -.215E-13   -.950E-22 -.528E-21 -.202E-22   0.182E-12 0.268E-13 0.177E-12
   0.367E-13 0.697E-13 0.584E-13   0.737E-14 0.134E-13 -.432E-14   0.143E-21 -.538E-21 0.136E-22   0.176E-12 -.115E-13 -.237E-12
   0.229E-14 0.187E-13 0.186E-12   0.153E-13 -.583E-14 -.443E-14   0.209E-21 0.523E-22 -.278E-21   -.246E-12 -.775E-14 -.252E-12
   0.614E-14 0.506E-11 -.561E-11   0.150E-13 0.165E-13 -.928E-14   -.282E-21 -.101E-21 -.365E-22   -.254E-12 -.820E-14 0.160E-12
   0.494E-13 0.401E-13 -.113E-11   -.844E-14 -.906E-14 0.533E-14   -.129E-22 0.275E-23 0.625E-23   -.719E-13 0.485E-13 0.867E-13
   0.475E-13 0.218E-11 0.899E-12   -.830E-14 -.879E-15 0.124E-13   0.418E-22 -.297E-23 0.176E-22   -.680E-13 0.411E-13 -.158E-12
   0.886E-13 0.429E-13 0.102E-14   -.164E-13 -.770E-14 0.124E-13   0.255E-22 -.321E-23 0.108E-22   0.162E-12 0.478E-13 -.154E-12
   0.884E-13 0.880E-13 0.584E-13   -.163E-13 0.481E-15 0.621E-14   0.516E-23 0.217E-22 -.217E-22   0.165E-12 0.365E-13 0.929E-13
   0.356E-12 0.751E-11 -.546E-11   -.410E-14 -.201E-14 -.322E-14   0.345E-22 -.110E-20 -.308E-21   0.447E-13 0.173E-12 -.285E-12

 POSITION                                       TOTAL-FORCE (eV/Angst)
      0.00000      0.00000      0.00000         0.000000      0.000000      0.000000
      0.00000      2.10323      2.10323        -0.000000      0.000000     -0.000000
      2.10323      0.00000      2.10323         0.000000     -0.000000      0.000000
      2.10323      2.10323      0.00000        -0.000000     -0.000000     -0.000000
      2.10323      0.00000      0.00000         0.000000     -0.000000      0.000000
      2.10323      2.10323      2.10323         0.000000     -0.000000      0.000000
      0.00000      0.00000      2.10323         0.000000     -0.000000     -0.000000
      0.00000      2.10323      0.00000        -0.000000     -0.000000     -0.000000
    total drift:                                0.000000      0.000000     -0.000000

  FREE ENERGIE OF THE ION-ELECTRON SYSTEM (eV)
  free  energy   TOTEN  =       -47.49408441 eV

  energy  without entropy=      -47.49408441  energy(sigma->0) =      -47.49408441

[...]

 d Force = 0.0000000E+00[ 0.000E+00, 0.000E+00]  d Energy = 0.3305273E-01-0.331E-01
 d Force = 0.0000000E+00[ 0.000E+00, 0.000E+00]  d Ewald  =-0.7431838E+02 0.743E+02

 Steepest descent step on ions:
 trial-energy change:   -0.033053  1 .order   -0.034148   -0.106053    0.037757
  (g-gl).g = 0.106E+00      g.g   = 0.106E+00  gl.gl    = 0.000E+00
 g(Force)  = 0.163E-58   g(Stress)= 0.106E+00 ortho     = 0.000E+00
 gamma     =   0.00000
 trial     =   1.00000
 opt step  =   0.72841  (harmonic =   0.73745) maximal distance =0.00000000
 next E    =   -47.532286   (d E  =  -0.03820)

[...]

 eigenvalue-minimisations  :  3257
 total energy-change (2. order) : 0.1097890E-01  (-0.5522462E-02)
 number of electron      63.9999928 magnetization
 augmentation part       17.5725311 magnetization

[...]

 Broyden mixing:
  rms(total) = 0.41442E-03    rms(broyden)= 0.41442E-03
  rms(prec ) = 0.61611E-03
  weight for this iteration     100.00

 eigenvalues of (default mixing * dielectric matrix)
  average eigenvalue GAMMA=   1.5052
  4.1981  2.6075  2.6075  1.7282  1.5754  1.5754  1.1530  1.1530  0.9612  0.7454
  0.5650  0.5650  0.1331

[...]

--------------------------------------- Iteration      3(  15)  ---------------------------------------

 eigenvalue-minimisations  :  2125
 total energy-change (2. order) :-0.7619274E-06  (-0.7006652E-06)
 number of electron      63.9999928 magnetization
 augmentation part       17.5264289 magnetization

 Free energy of the ion-electron system (eV)
  alpha Z        PSCENC =       318.84493608
  Ewald energy   TEWEN  =     -5110.04336219
  -Hartree energ DENC   =     -2345.99277401
  -exchange      EXHF   =         0.00000000
  -V(xc)+E(xc)   XCENC  =       378.94723764
  PAW double counting   =      6296.86948503    -6712.12028717
  entropy T*S    EENTRO =        -0.00000000
  eigenvalues    EBANDS =     -1517.23395841
  atomic energy  EATOM  =      8643.19652899
  Solvation  Ediel_sol  =         0.00000000
  free energy    TOTEN  =       -47.53219403 eV

  energy without entropy =      -47.53219403  energy(sigma->0) =      -47.53219403

 average (electrostatic) potential at core
  the test charge radii are     0.7298  0.7215
  (the norm of the test charge is              1.0000)
       1 -43.6424       2 -43.6424       3 -43.6424       4 -43.6424       5 -70.0345
       6 -70.0345       7 -70.0345       8 -70.0345

 E-fermi :   3.0018     XC(G=0): -11.2525     alpha+bet :-12.4382

 Fermi energy:         3.0018127573

[...]

 k-point    35 :       0.4444    0.4444    0.4444
  band No.  band energies     occupation
      1     -69.6378      2.00000
      2     -69.6375      2.00000
      3     -69.6375      2.00000
      4     -69.6375      2.00000
      5     -36.4515      2.00000
      6     -36.4515      2.00000
      7     -36.4515      2.00000
      8     -36.4504      2.00000
      9     -36.3847      2.00000
     10     -36.3847      2.00000
     11     -36.3847      2.00000
     12     -36.3840      2.00000
     13     -36.3840      2.00000
     14     -36.3840      2.00000
     15     -36.3832      2.00000
     16     -36.3832      2.00000
     17     -13.1935      2.00000
     18     -13.1441      2.00000
     19     -13.1441      2.00000
     20     -13.1441      2.00000
     21      -1.7149      2.00000
     22      -1.7149      2.00000
     23      -1.7149      2.00000
     24      -1.6614      2.00000
     25       1.9875      2.00000
     26       1.9875      2.00000
     27       1.9875      2.00000
     28       2.0718      2.00000
     29       2.0718      2.00000
     30       2.0718      2.00000
     31       2.1117      2.00000
     32       2.1117      2.00000
     33      10.4346      0.00000
     34      10.5979      0.00000
     35      10.5979      0.00000
     36      10.5979      0.00000
     37      14.9765      0.00000
     38      14.9930      0.00000
     39      14.9932      0.00000
     40      14.9932      0.00000

 soft charge-density along one line, spin component           1
         0         1         2         3         4         5         6         7         8         9
 total charge-density along one line

------------------------ aborting loop because EDIFF is reached ----------------------------------------

[...]

  FORCE on cell =-STRESS in cart. coord.  units (eV):
  Direction    XX          YY          ZZ          XY          YZ          ZX
  Alpha Z   318.84494   318.84494   318.84494
  Ewald   -1703.35026 -1703.35026 -1703.35026     0.00000     0.00000     0.00000
  Hartree   782.00351   782.00351   782.00351    -0.00000    -0.00000    -0.00000
  E(xc)    -401.06446  -401.06446  -401.06446     0.00000     0.00000    -0.00000
  Local     256.73927   256.73927   256.73927     0.00000    -0.00000     0.00000
  n-local  -744.43053  -738.57204  -732.30380     0.61003     0.51308     0.36889
  augment   114.17362   114.17362   114.17362     0.00000    -0.00000    -0.00000
  Kinetic  1370.80976  1372.69187  1369.72117    -3.67834    -3.28362    -2.33351
  Fock        0.00000     0.00000     0.00000     0.00000     0.00000     0.00000
  Total      -0.01458    -0.01458    -0.01458     0.00000    -0.00000     0.00000
  in kB      -0.30397    -0.30397    -0.30397     0.00000    -0.00000     0.00000

 VOLUME and BASIS-vectors are now :
  energy-cutoff  :      800.00
  volume of cell :       76.83
      direct lattice vectors                 reciprocal lattice vectors
     4.251193752  0.000000000 -0.000000000     0.235228046  0.000000000  0.000000000
    -0.000000000  4.251193752  0.000000000    -0.000000000  0.235228046 -0.000000000
    -0.000000000  0.000000000  4.251193752     0.000000000  0.000000000  0.235228046

  length of vectors
     4.251193752  4.251193752  4.251193752     0.235228046  0.235228046  0.235228046

 FORCES acting on ions
    electron-ion (+dipol)            ewald-force                    non-local-force                 convergence-correction
   0.316E-13 0.282E-13 0.873E-13   -.135E-13 -.696E-14 -.108E-13   0.222E-22 -.575E-23 -.430E-22   0.130E-12 0.288E-14 0.140E-12
   -.423E-14 0.649E-13 0.596E-13   -.133E-13 -.266E-14 0.470E-15   0.396E-22 -.347E-22 0.294E-22   0.595E-13 0.253E-13 -.202E-12
   0.263E-13 -.130E-13 0.234E-12   0.332E-13 -.458E-14 0.289E-15   -.201E-23 0.129E-22 -.396E-22   -.252E-12 0.416E-13 -.142E-12
   0.295E-13 0.511E-11 -.565E-11   0.334E-13 -.285E-15 -.997E-14   0.117E-22 -.155E-22 0.902E-23   -.253E-12 -.338E-13 0.191E-12
   0.446E-13 0.411E-13 -.115E-11   -.583E-14 0.174E-14 0.673E-15   0.158E-22 -.202E-22 0.163E-22   -.613E-13 0.348E-13 0.848E-13
   0.503E-13 0.219E-11 0.879E-12   -.574E-14 0.523E-14 0.813E-14   -.293E-23 -.223E-25 -.938E-23   -.507E-13 0.223E-13 -.149E-12
   0.631E-13 0.411E-13 -.191E-14   -.158E-13 0.328E-14 0.812E-14   0.187E-22 -.165E-23 0.150E-23   0.140E-12 0.218E-13 -.147E-12
   0.593E-13 0.883E-13 0.569E-13   -.157E-13 0.678E-14 0.261E-14   -.182E-22 0.165E-22 0.206E-23   0.133E-12 0.319E-13 0.986E-13
   0.300E-12 0.755E-11 -.549E-11   -.318E-14 0.255E-14 -.524E-15   0.849E-22 -.485E-22 -.338E-22   -.154E-12 0.147E-12 -.125E-12

 POSITION                                       TOTAL-FORCE (eV/Angst)
      0.00000      0.00000      0.00000        -0.000000     -0.000000     -0.000000
     -0.00000      2.12560      2.12560        -0.000000     -0.000000     -0.000000
      2.12560      0.00000      2.12560         0.000000     -0.000000      0.000000
      2.12560      2.12560     -0.00000        -0.000000      0.000000      0.000000
      2.12560      0.00000     -0.00000         0.000000     -0.000000     -0.000000
      2.12560      2.12560      2.12560        -0.000000     -0.000000     -0.000000
     -0.00000     -0.00000      2.12560         0.000000     -0.000000     -0.000000
     -0.00000      2.12560     -0.00000        -0.000000     -0.000000      0.000000
    total drift:                                0.000000      0.000000     -0.000000

  FREE ENERGIE OF THE ION-ELECTRON SYSTEM (eV)
  free  energy   TOTEN  =       -47.53219403 eV

  energy  without entropy=      -47.53219403  energy(sigma->0) =      -47.53219403

 d Force = 0.0000000E+00[ 0.000E+00, 0.000E+00]  d Energy = 0.5056893E-02-0.506E-02
 d Force = 0.0000000E+00[ 0.000E+00, 0.000E+00]  d Ewald  = 0.1997167E+02-0.200E+02

 reached required accuracy - stopping structural energy minimisation

 total charge

# of ion       s       p       d       tot
    1        2.070   6.007   0.038   8.115
    2        2.070   6.007   0.038   8.115
    3        2.070   6.007   0.038   8.115
    4        2.070   6.007   0.038   8.115
    5        1.538   3.548   0.000   5.086
    6        1.538   3.548   0.000   5.086
    7        1.538   3.548   0.000   5.086
    8        1.538   3.548   0.000   5.086
tot         14.430  38.221   0.153  52.804