 vasp.6.2.0 18Jan21 (build Mar 03 2021 13:27:41) complex

 executed on             LinuxIFC date 2021.07.14  22:03:32

 INCAR:
   SYSTEM = TiO2-rutile
   ISMEAR = 0
   SIGMA = 0.05
   EDIFF = 1E-5
   ALGO = Fast
   ISTART = 1
   ISYM = 0
   IBRION = -1
   NSW = 0
   EDIFFG = -0.01
   ISIF = 0
   ENCUT = 500
   PREC = Accurate
   LASPH = .TRUE.
   LREAL = Auto
   ISPIN = 1
   NELM = 500
   NELMIN = 4
   NCORE = 20
   LWAVE = .FALSE.
   LCHARG = .FALSE.
   LORBIT = 11

 POTCAR:    PAW_PBE Ti_sv 26Sep2005
 POTCAR:    PAW_PBE O 08Apr2002
 POTCAR:    PAW_PBE Ti_sv 26Sep2005
   VRHFIN =Ti: 3p4s3d

   TITEL  = PAW_PBE Ti_sv 26Sep2005
   POMASS =   47.880; ZVAL   =   12.000    mass and valenz
   ENMAX  =  274.610; ENMIN  =  205.957 eV

   TITEL  = PAW_PBE O 08Apr2002
   POMASS =   16.000; ZVAL   =    6.000    mass and valenz
   ENMAX  =  400.000; ENMIN  =  300.000 eV

 Optimization of the real space projectors (new method)

 maximal supplied QI-value         = 16.25
 optimisation between [QCUT,QGAM] = [ 11.38, 22.75] = [ 36.24,144.96] Ry
 Optimized for a Real-space Cutoff    1.27 Angstroem

   l    n(q)    QCUT    max X(q) W(low)/X(q) W(high)/X(q)  e(spline)
   0      9    11.376    12.277    0.53E-04    0.25E-04    0.25E-07
   0      9    11.376    11.419    0.89E-04    0.67E-05    0.35E-07
   1      8    11.376     4.010    0.13E-03    0.11E-03    0.29E-07
   1      8    11.376     6.182    0.94E-04    0.19E-03    0.11E-06
   2      8    11.376    47.177    0.13E-03    0.88E-03    0.24E-06
   2      8    11.376    42.437    0.13E-03    0.86E-03    0.23E-06
 Optimization of the real space projectors (new method)

 maximal supplied QI-value         = 24.76
 optimisation between [QCUT,QGAM] = [ 11.39, 22.77] = [ 36.31,145.25] Ry
 Optimized for a Real-space Cutoff    1.10 Angstroem

   l    n(q)    QCUT    max X(q) W(low)/X(q) W(high)/X(q)  e(spline)
   0      7    11.387    20.381    0.22E-03    0.48E-03    0.18E-06
   0      7    11.387    15.268    0.22E-03    0.52E-03    0.19E-06
   1      7    11.387     5.964    0.22E-03    0.73E-03    0.24E-06
   1      7    11.387     5.382    0.19E-03    0.60E-03    0.21E-06
  PAW_PBE Ti_sv 26Sep2005               :
  PAW_PBE O 08Apr2002                   :

 POSCAR: Ti  O
  positions in direct lattice
  velocities in cartesian coordinates
 exchange correlation table for  LEXCH =        8
   RHO(1)=    0.500       N(1)  =     2000
   RHO(2)=  100.500       N(2)  =     4000

 ion  position               nearest neighbor table
   1  0.250  0.125  0.108-  83 1.96  84 1.96  67 1.97  68 1.97  65 2.00  66 2.01
   2  0.001  0.001  0.108-  65 1.95 130 1.96 113 1.96 177 1.98  80 2.00  71 2.01
   3  0.501  0.119  0.360- 136 1.91 135 1.94 134 1.99 152 1.99  69 2.00 151 2.02  27 2.83  11 2.86

   4  0.252  0.000  0.358-  69 1.94 117 1.94  70 1.98 118 1.98  68 2.00  75 2.00
   5  0.246  0.124  0.609-  76 1.94  73 1.95  75 1.96  92 1.97  91 1.98  74 2.06
   6  0.995  0.000  0.609- 185 1.92 138 1.93  79 1.99 121 2.00  73 2.01  72 2.01
   7  0.500  0.123  0.854- 143 1.94 144 1.95 142 1.99 159 1.99 160 1.99  77 2.00  15 2.91  31 2.92

[...]

  32  0.249  0.750  0.859- 126 1.94 110 1.95 125 1.98 109 1.99 115 1.99 124 2.02
  33  0.751  0.125  0.108- 147 1.96 131 1.96 132 1.96 148 1.97 130 1.98 129 2.02
  34  0.500  0.999  0.105- 176 1.95 114 1.95 129 1.97  66 1.97 144 2.00 135 2.02
  35  0.000  0.124  0.359-  72 1.94  71 1.96  88 1.96  87 1.98  70 2.01 133 2.01
  36  0.748  1.000  0.358- 181 1.95 134 1.95 180 1.97 133 1.98 132 2.00 139 2.01
  37  0.746  0.126  0.608- 155 1.96 139 1.96 156 1.96 140 1.97 137 1.97 138 2.05
  38  0.494  1.000  0.609- 122 1.92  74 1.92 143 1.95 136 2.00 184 2.02 137 2.02
  39  0.000  0.126  0.858-  95 1.96  96 1.96  79 1.97  80 1.97  78 2.01 141 2.01
  40  0.749  0.000  0.859- 142 1.96 189 1.96 141 1.97 188 1.97 131 1.99 140 2.02
  41  0.750  0.375  0.109- 164 1.96 148 1.96 163 1.96 147 1.97 146 2.01 145 2.01
  42  0.501  0.247  0.101- 160 1.93 129 1.93  66 1.94 145 1.98  82 1.99 151 2.02
  43  1.000  0.374  0.358-  87 1.95  88 1.96 103 1.96 104 1.97  86 2.02 149 2.02
  44  0.752  0.250  0.358- 133 1.93 149 1.93 134 1.99 155 2.00 148 2.00 150 2.03
  45  0.754  0.376  0.608- 171 1.95 156 1.96 154 1.96 170 1.96 155 1.97 153 2.07
  46  0.502  0.251  0.601- 137 1.94 152 1.96 153 1.96  74 1.97  90 1.99 159 2.07
  47  0.999  0.375  0.859- 112 1.95  96 1.95 111 1.97  95 1.97 157 2.00  94 2.02
  48  0.751  0.250  0.858- 157 1.95 141 1.95 142 1.98 158 1.98 147 2.00 156 2.01
  49  0.749  0.625  0.109- 164 1.95 179 1.95 163 1.97 178 1.97 161 2.00 162 2.01
  50  0.500  0.499  0.100- 175 1.87  82 1.95 145 1.96  98 1.96 161 1.97 167 2.27
  51  0.999  0.624  0.359- 104 1.94 103 1.95 120 1.97 119 1.98 165 2.01 102 2.03
  52  0.746  0.500  0.360- 150 1.95 166 1.95 170 1.98 149 1.98 165 1.99 164 2.02
  53  0.754  0.625  0.608- 187 1.95 169 1.95 171 1.96 186 1.96 170 1.97 168 2.08
  54  0.502  0.500  0.629- 174 1.79 168 1.93 153 1.93  90 1.95 106 1.96
  55  1.000  0.626  0.857- 127 1.95 111 1.96 128 1.96 112 1.97 172 2.01 110 2.01
  56  0.748  0.500  0.859- 173 1.95 158 1.95 172 1.97 157 1.98 163 1.99 171 2.02
  57  0.753  0.875  0.108- 179 1.96 132 1.96 178 1.97 177 1.97 131 1.97 176 2.04
  58  0.501  0.752  0.101- 191 1.93 176 1.94 114 1.95 161 1.97  98 1.98 182 2.02
  59  0.001  0.874  0.357- 119 1.94  71 1.96 120 1.97  72 1.98 118 2.00 180 2.02
  60  0.752  0.750  0.360- 180 1.93 165 1.94 186 1.97 181 1.99 179 2.02 166 2.03
  61  0.746  0.876  0.609- 140 1.95 139 1.96 184 1.96 187 1.97 186 1.98 185 2.05
  62  0.501  0.748  0.600- 184 1.95 183 1.95 168 1.96 122 1.97 106 1.99 190 2.08
  63  0.000  0.875  0.858-  80 1.96 128 1.96  79 1.96 127 1.97 126 2.01 188 2.01
  64  0.751  0.750  0.859- 172 1.95 188 1.95 173 1.98 189 1.98 178 1.99 187 2.02
  65  0.098  0.125  0.108-   2 1.95  10 1.97   1 2.00
  66  0.403  0.125  0.106-  42 1.94  34 1.97   1 2.01
  67  0.250  0.000  0.010-   1 1.97  25 1.97   8 1.99
  68  0.251  1.000  0.205-  25 1.96   1 1.97   4 2.00
  69  0.348  0.125  0.358-   4 1.94  12 1.99   3 2.00
  70  0.153  0.126  0.358-  12 1.93   4 1.98  35 2.01
  71  0.000  1.000  0.261-  59 1.96  35 1.96   2 2.01
  72  1.000  0.000  0.456-  35 1.94  59 1.98   6 2.01
  73  0.098  0.125  0.608-   5 1.95  14 1.96   6 2.01
  74  0.403  0.127  0.606-  38 1.92  46 1.97   5 2.06
  75  0.250  1.000  0.510-   5 1.96  29 1.97   4 2.00
  76  0.251  0.000  0.705-   5 1.94  29 1.97   8 2.01
  77  0.348  0.125  0.857-   8 1.95  16 1.98   7 2.00
  78  0.153  0.125  0.857-  16 1.94   8 1.97  39 2.01
  79  1.000  0.000  0.760-  63 1.96  39 1.97   6 1.99
  80  0.000  1.000  0.956-  63 1.96  39 1.97   2 2.00
  81  0.098  0.375  0.108-  10 1.95  18 1.97   9 2.01
  82  0.403  0.375  0.110-  50 1.95  42 1.99   9 2.01
  83  0.250  0.250  0.010-   1 1.96   9 1.97  16 1.99
  84  0.251  0.250  0.206-   9 1.96   1 1.96  12 2.01
  85  0.351  0.376  0.360-  20 1.96  11 1.98  12 2.03
  86  0.154  0.375  0.358-  12 1.94  20 1.98  43 2.02
  87  1.000  0.250  0.260-  43 1.95  35 1.98  10 1.99
  88  1.000  0.250  0.456-  43 1.96  35 1.96  14 2.01
  89  0.098  0.375  0.608-  22 1.93  14 1.96  13 2.03
  90  0.404  0.380  0.602-  54 1.95  46 1.99  13 1.99
  91  0.250  0.250  0.510-  13 1.94   5 1.98  12 1.99
[...]
 177  0.902  0.875  0.108-  57 1.97  26 1.97   2 1.98
 178  0.750  0.750  0.010-  57 1.97  49 1.97  64 1.99
 179  0.749  0.750  0.206-  49 1.95  57 1.96  60 2.02
 180  0.847  0.875  0.358-  60 1.93  36 1.97  59 2.02
 181  0.652  0.875  0.358-  36 1.95  60 1.99  27 1.99
 182  0.500  0.757  0.255-  19 1.78  27 2.02  58 2.02
 183  0.500  0.748  0.452-  19 1.94  62 1.95  27 1.99
 184  0.597  0.874  0.606-  62 1.95  61 1.96  38 2.02
 185  0.902  0.875  0.608-   6 1.92  30 1.96  61 2.05
 186  0.750  0.750  0.510-  53 1.96  60 1.97  61 1.98
 187  0.748  0.749  0.705-  53 1.95  61 1.97  64 2.02
 188  0.847  0.875  0.857-  64 1.95  40 1.97  63 2.01
 189  0.652  0.875  0.857-  40 1.96  64 1.98  31 1.99
 190  0.500  0.747  0.759-  23 1.91  31 1.98  62 2.08
 191  0.500  0.751  0.955-  23 1.89  58 1.93  31 1.99

IMPORTANT INFORMATION: All symmetrisations will be switched off!
NOSYMM: (Re-)initialisation of all symmetry stuff for point group C_1.

                                     Primitive cell

  volume of cell :    2050.2916

  direct lattice vectors                    reciprocal lattice vectors
    13.143474388  0.000000000  0.000000000     0.076083383  0.000000000  0.000000000
     0.000000000 11.868484200  0.000000000     0.000000000  0.084256758  0.000000000
     0.000000000  0.000000000 13.143474388     0.000000000  0.000000000  0.076083383

  length of vectors
    13.143474388 11.868484200 13.143474388     0.076083383  0.084256758  0.076083383

  position of ions in fractional coordinates (direct lattice)
     0.249964380  0.125316303  0.107717803
     0.000843280  0.000996227  0.107869059
     0.500565041  0.119053816  0.359629093
     0.252330247  0.000125422  0.357760108
     0.246089177  0.123986407  0.608643822
     0.995104987  0.000013530  0.608797650
     0.500264757  0.122878866  0.854387105
     0.251670152  0.000098579  0.858310988
     0.250434924  0.375457957  0.109150655
     0.000056328  0.251389982  0.109144364
     0.499384124  0.359311896  0.340564512
     0.247914315  0.249636875  0.358540297
     0.252576843  0.373942146  0.607123474
     0.999962344  0.250019496  0.608377777
     0.499678179  0.368111947  0.859174216
     0.248647353  0.250180686  0.858484495
     0.251320180  0.624903556  0.109060938
     0.000043067  0.500602630  0.108176711
     0.499866509  0.640571824  0.340377504
     0.252650593  0.500210803  0.359602197
     0.251991917  0.623926301  0.608871328
     0.004324108  0.499922488  0.609232829
     0.499187572  0.631887455  0.859379820
     0.251097871  0.499968052  0.859052203
     0.248755152  0.874970645  0.107973216
     0.000298326  0.749120994  0.108006628
     0.500038692  0.881018377  0.359472798
     0.247866537  0.750105032  0.358780097
     0.246353614  0.874036951  0.607315740
     0.999895866  0.750489585  0.607220610
     0.500481347  0.876798299  0.853872064
     0.248661014  0.750350232  0.858591409
     0.751321642  0.125120874  0.107597947
     0.500097424  0.998868922  0.105183544
     0.000131575  0.123823496  0.359301176
     0.748242314  0.999896267  0.357772655
     0.746486137  0.125635761  0.607555769
     0.493531446  0.999936593  0.609294434
     0.000184752  0.125565289  0.857824097
     0.749016789  0.000106806  0.858685459
     0.749680934  0.375281835  0.108992967
     0.500620895  0.247456133  0.101060379
     0.999953774  0.374483100  0.357753365
     0.752255802  0.249854995  0.358352309
     0.753678019  0.375714252  0.608023278
     0.501517844  0.251150831  0.600828670
     0.999447828  0.375385796  0.859172181
     0.751248808  0.250248253  0.858140692
     0.749344266  0.624919443  0.109488590
     0.499585650  0.499334606  0.099819075
     0.999155046  0.623533102  0.358794999
     0.746083658  0.499838707  0.359643526
     0.754102483  0.625226804  0.608437893
     0.502168298  0.500002269  0.629139528
     0.999962438  0.625528816  0.857444511
     0.747990977  0.500270207  0.859389221
[...]
   0.889E+00 -.272E+00 0.193E+02   -.853E+00 0.264E+00 -.191E+02   -.158E-01 0.114E-01 -.135E+00   -.185E-01 -.304E-02 -.125E-01
   -.615E+00 0.725E+01 -.107E+02   0.475E+00 -.725E+01 0.108E+02   0.160E+00 -.114E-01 -.120E-01   -.184E-01 0.330E-02 -.124E-01
   0.295E+00 -.146E+01 -.550E+01   -.241E+00 0.140E+01 0.554E+01   -.371E-01 0.621E-01 -.153E-01   -.161E-01 -.263E-02 -.207E-01
   -.605E+00 0.687E+02 -.173E+02   0.605E+00 -.681E+02 0.174E+02   -.446E-02 -.533E+00 -.932E-01   0.588E-02 -.457E-01 -.199E-02
   -.385E+02 0.410E+02 -.106E+02   0.380E+02 -.409E+02 0.107E+02   0.518E+00 -.133E+00 -.173E+00   -.251E-01 0.294E-03 -.343E-03
   -.187E+02 0.136E+02 0.991E+00   0.182E+02 -.137E+02 -.111E+01   0.485E+00 0.107E+00 0.977E-01   -.205E-01 0.104E-01 0.208E-01
   0.421E+00 0.103E+02 0.377E+01   -.436E+00 -.102E+02 -.386E+01   0.226E-01 -.599E-01 0.746E-01   -.107E-01 -.185E-01 0.174E-01
   0.987E+00 0.217E+02 0.281E+02   -.910E+00 -.213E+02 -.281E+02   -.806E-01 -.352E+00 -.695E-02   0.858E-02 -.304E-01 -.285E-02
   -.402E+01 0.109E+02 0.174E+02   0.383E+01 -.108E+02 -.172E+02   0.218E+00 -.395E-01 -.115E+00   -.304E-01 -.104E-01 -.627E-02
   0.624E-01 -.622E+01 -.120E+02   0.614E-01 0.622E+01 0.120E+02   -.149E+00 0.918E-02 0.451E-01   0.239E-01 -.942E-02 -.119E-01
   -.132E+01 -.767E+01 -.171E+02   0.133E+01 0.758E+01 0.170E+02   -.105E-01 0.836E-01 0.178E+00   0.107E-01 -.295E-02 -.215E-01
   0.742E+00 -.962E+01 -.798E+00   -.710E+00 0.948E+01 0.903E+00   -.146E-01 0.129E+00 -.104E+00   -.114E-01 0.131E-02 0.594E-02
   -.132E+02 -.954E+00 -.428E+01   0.130E+02 0.945E+00 0.425E+01   0.165E+00 0.400E-02 0.429E-01   0.457E-01 0.344E-02 -.111E-01
   -.145E+01 -.136E+02 0.183E+01   0.102E+01 0.137E+02 -.192E+01   0.404E+00 -.568E-01 0.702E-01   0.257E-01 -.981E-03 0.192E-01
   -.134E+02 0.107E+00 0.563E+01   0.129E+02 -.133E+00 -.539E+01   0.534E+00 0.279E-01 -.268E+00   0.808E-02 0.129E-02 0.224E-01
   0.455E+00 0.272E+01 0.205E+01   -.411E+00 -.263E+01 -.205E+01   -.323E-01 -.740E-01 0.160E-01   -.836E-02 -.610E-02 -.113E-01
   -.926E+01 0.450E+00 0.115E+02   0.921E+01 -.445E+00 -.114E+02   0.120E-01 -.615E-02 -.122E+00   0.451E-01 0.440E-02 -.919E-02
   0.411E+01 -.908E+01 -.197E+02   -.414E+01 0.907E+01 0.197E+02   0.180E-01 0.126E-02 -.418E-01   0.107E-01 0.674E-02 -.189E-01
   0.101E+01 -.363E+02 -.254E+02   -.965E+00 0.359E+02 0.250E+02   -.564E-01 0.383E+00 0.433E+00   0.130E-01 0.204E-01 -.195E-01
   0.110E+01 -.132E+02 -.847E+01   -.109E+01 0.131E+02 0.844E+01   -.370E-02 0.103E+00 0.231E-01   -.107E-01 0.634E-02 0.744E-02
   0.389E+02 -.411E+02 -.119E+02   -.384E+02 0.410E+02 0.120E+02   -.545E+00 0.152E+00 -.106E+00   0.198E-01 -.672E-02 0.323E-02
   0.591E+02 -.182E+02 0.269E+02   -.586E+02 0.182E+02 -.269E+02   -.570E+00 -.741E-01 -.210E-01   0.913E-02 0.169E-01 0.170E-01
   0.689E+01 -.887E+02 0.332E+02   -.674E+01 0.886E+02 -.339E+02   -.167E+00 0.117E+00 0.619E+00   0.122E-01 0.308E-01 0.158E-01
   -.198E+01 -.414E+01 0.760E+01   0.190E+01 0.417E+01 -.749E+01   0.916E-01 -.248E-01 -.843E-01   -.107E-01 0.456E-03 -.160E-01
   0.314E+01 -.779E+01 0.160E+02   -.298E+01 0.780E+01 -.159E+02   -.197E+00 -.115E-01 -.465E-01   0.314E-01 0.709E-02 -.719E-02
   0.275E+01 0.101E+02 -.190E+02   -.286E+01 -.100E+02 0.191E+02   0.838E-01 -.247E-01 -.113E+00   0.208E-01 -.101E-01 -.180E-01
   -.251E+01 -.385E+01 -.112E+03   0.248E+01 0.376E+01 0.110E+03   0.246E-01 0.886E-01 0.211E+01   0.912E-02 -.563E-03 -.366E-01
   -.219E+01 0.251E+01 -.310E+01   0.208E+01 -.266E+01 0.313E+01   0.111E+00 0.149E+00 -.422E-01   -.122E-01 -.941E-02 0.815E-02
   0.801E+02 -.154E+01 -.267E+02   -.803E+02 0.153E+01 0.269E+02   0.212E+00 0.103E-01 -.200E+00   0.183E-01 -.183E-02 0.180E-01
   0.613E+02 0.217E+02 0.267E+02   -.607E+02 -.217E+02 -.266E+02   -.629E+00 -.443E-01 -.594E-01   0.150E-01 -.160E-01 0.210E-01
   0.804E+00 0.411E+00 0.261E+03   -.658E+00 -.424E+00 -.258E+03   -.159E+00 0.136E-01 -.291E+01   0.956E-02 -.170E-02 0.163E-01
   0.259E+00 0.892E+01 0.223E+01   -.264E+00 -.887E+01 -.230E+01   0.164E-01 -.523E-01 0.798E-01   -.126E-01 0.131E-02 -.101E-01
   -.224E+01 0.160E+01 0.207E+02   0.206E+01 -.158E+01 -.205E+02   0.155E+00 -.230E-01 -.198E+00   0.223E-01 0.238E-02 -.116E-01
   0.583E+01 0.449E+01 -.989E+01   -.551E+01 -.454E+01 0.994E+01   -.335E+00 0.415E-01 -.295E-01   0.268E-01 0.107E-01 -.118E-01
   0.109E+01 0.348E+02 -.249E+02   -.102E+01 -.345E+02 0.245E+02   -.786E-01 -.243E+00 0.440E+00   0.901E-02 -.167E-01 -.184E-01
   0.258E+01 -.762E+00 -.828E+01   -.249E+01 0.639E+00 0.815E+01   -.797E-01 0.124E+00 0.122E+00   -.109E-01 0.497E-02 0.581E-02
   0.389E+02 0.440E+02 -.589E+01   -.384E+02 -.438E+02 0.619E+01   -.528E+00 -.174E+00 -.300E+00   0.259E-01 0.540E-02 0.316E-02
[...]
   0.538E+00 0.595E+01 0.590E+02   -.798E+00 -.616E+01 -.631E+02   0.248E+00 0.212E+00 0.412E+01   0.140E-01 -.235E-02 -.247E-01
   0.100E+02 0.859E+01 -.818E+02   -.105E+02 -.844E+01 0.870E+02   0.498E+00 -.159E+00 -.521E+01   0.110E-01 0.323E-02 0.755E-02
   -.697E+02 -.676E+01 -.271E+01   0.749E+02 0.782E+01 0.271E+01   -.520E+01 -.106E+01 0.459E-02   -.291E-01 0.283E-02 0.161E-03
   0.582E+02 0.289E+02 -.262E+01   -.624E+02 -.301E+02 0.236E+01   0.417E+01 0.122E+01 0.261E+00   0.684E-01 -.910E-02 -.136E-02
   0.295E+00 -.260E+02 0.665E+02   -.366E+00 0.333E+02 -.747E+02   0.646E-01 -.728E+01 0.823E+01   0.501E-02 -.201E-01 -.486E-02
   0.164E+01 0.833E+02 -.698E+02   -.178E+01 -.837E+02 0.735E+02   0.134E+00 0.419E+00 -.370E+01   0.410E-02 -.241E-01 0.153E-02
   -.484E+02 0.292E+01 0.325E+01   0.514E+02 -.152E+01 -.324E+01   -.297E+01 -.140E+01 -.285E-01   0.518E-01 -.385E-02 0.105E-01
   0.843E+02 0.116E+02 0.241E+01   -.905E+02 -.125E+02 -.245E+01   0.621E+01 0.939E+00 0.284E-01   -.291E-01 -.740E-03 0.995E-02
   0.171E+02 0.163E+02 0.578E+02   -.172E+02 -.162E+02 -.615E+02   0.113E+00 -.169E+00 0.365E+01   0.152E-01 -.334E-02 -.727E-03
   0.135E+02 0.605E+01 -.595E+02   -.140E+02 -.578E+01 0.646E+02   0.496E+00 -.263E+00 -.506E+01   0.168E-01 -.561E-02 0.190E-01
   -.673E+02 -.338E+01 0.729E+01   0.721E+02 0.384E+01 -.758E+01   -.476E+01 -.457E+00 0.286E+00   -.347E-01 -.113E-02 -.147E-02
   0.528E+02 0.104E+02 0.787E+01   -.568E+02 -.110E+02 -.785E+01   0.392E+01 0.589E+00 -.130E-01   0.756E-01 -.424E-02 -.185E-02
   0.548E+00 0.346E+01 0.114E+03   -.584E+00 -.250E+01 -.121E+03   0.359E-01 -.934E+00 0.703E+01   -.745E-03 -.182E-01 -.154E-01
   -.880E-01 -.127E+02 -.524E+02   0.671E-01 0.149E+02 0.560E+02   0.190E-01 -.218E+01 -.363E+01   0.134E-02 -.124E-01 0.109E-01
   -.384E+00 -.271E+01 -.109E+02   0.611E-12 0.952E-12 0.611E-12   0.420E+00 0.269E+01 0.109E+02   -.118E-01 0.301E-01 -.738E-02

 POSITION                                       TOTAL-FORCE (eV/Angst)
      3.28540      1.48731      1.41579         0.000427     -0.002587     -0.006334
      0.01108      0.01182      1.41777        -0.001205     -0.002301      0.001370
      6.57916      1.41299      4.72678         0.002792      0.002508     -0.008194
      3.31650      0.00149      4.70221         0.006152      0.001549      0.001360
      3.23447      1.47153      7.99969         0.000543      0.002661     -0.009545
     13.07914      0.00016      8.00172         0.001265     -0.002651      0.002265
      6.57522      1.45839     11.22962         0.003492      0.001425     -0.001911
      3.30782      0.00117     11.28119        -0.001837     -0.002704      0.001948
      3.29159      4.45612      1.43462         0.001606      0.000417      0.002088
      0.00074      2.98362      1.43454        -0.001872     -0.001166     -0.003552
      6.56364      4.26449      4.47620        -0.002900     -0.006648      0.001115
      3.25846      2.96281      4.71247         0.003048     -0.002290     -0.005468
      3.31974      4.43813      7.97971         0.002854      0.006017      0.005023
     13.14298      2.96735      7.99620        -0.002831     -0.000609     -0.000605
      6.56751      4.36893     11.29253        -0.002457     -0.002841      0.003526
      3.26809      2.96927     11.28347        -0.002537     -0.000428     -0.002834
      3.30322      7.41666      1.43344        -0.004902      0.001470     -0.001145
      0.00057      5.94139      1.42182         0.001870     -0.001255     -0.003071
      6.56998      7.60262      4.47374        -0.003555      0.003005      0.002318
      3.32071      5.93674      4.72642        -0.001775     -0.001168      0.004258
      3.31205      7.40506      8.00268         0.007787      0.005692      0.002873
      0.05683      5.93332      8.00744        -0.004569      0.000183      0.003222
      6.56106      7.49955     11.29524         0.000508     -0.001441     -0.001183
      3.30030      5.93386     11.29093         0.001813     -0.000566      0.001651
      3.26951     10.38458      1.41914         0.002707     -0.000526     -0.000698
      0.00392      8.89093      1.41958         0.000432      0.002117      0.001747
      6.57225     10.45635      4.72472         0.001537      0.004058      0.000288
      3.25783      8.90261      4.71562         0.005509     -0.001197      0.001502
      3.23794     10.37349      7.98224         0.006511     -0.002749      0.000808
     13.14211      8.90717      7.98099        -0.003052     -0.000242      0.002428
      6.57806     10.40627     11.22285         0.004950      0.006790     -0.001493
      3.26827      8.90552     11.28487        -0.003638     -0.000758      0.001161
      9.87498      1.48500      1.41421        -0.001590      0.000877      0.000161
      6.57302     11.85506      1.38248         0.001065     -0.004239      0.002569
      0.00173      1.46960      4.72247         0.005343     -0.007280      0.007108
      9.83450     11.86725      4.70238         0.005243     -0.001509      0.007451
      9.81142      1.49111      7.98539        -0.001528     -0.002739     -0.003201
      6.48672     11.86773      8.00825         0.004617      0.003199     -0.005870
      0.00243      1.49027     11.27479         0.003362      0.006194      0.003800
      9.84468      0.00127     11.28611         0.000417      0.003913      0.003710
      9.85341      4.45403      1.43255        -0.001052     -0.003468     -0.000989
      6.57990      2.93693      1.32828         0.002996      0.000489     -0.001548
     13.14287      4.44455      4.70212        -0.004707     -0.003204      0.000545
      9.88725      2.96540      4.70999         0.004653     -0.002742      0.001829
      9.90595      4.45916      7.99154        -0.002863      0.003824      0.002745
      6.59169      2.98078      7.89698        -0.005478     -0.000268     -0.004089
     13.13622      4.45526     11.29251        -0.001173      0.004700      0.004084
      9.87402      2.97007     11.27895        -0.006876     -0.001652     -0.006849
      9.84899      7.41685      1.43906        -0.005017     -0.000195     -0.000770
      6.56629      5.92634      1.31197        -0.001106      0.002127     -0.000213
     13.13237      7.40039      4.71581        -0.008640     -0.009440     -0.001027
      9.80613      5.93233      4.72697        -0.003140      0.001725     -0.001365
      9.91153      7.42049      7.99699         0.001014      0.003627      0.000568
      6.60024      5.93427      8.26908        -0.004218     -0.000512     -0.001796
     13.14298      7.42408     11.26980        -0.001773      0.000798     -0.003591
      9.83120      5.93745     11.29536        -0.001384      0.000714     -0.000165
      9.89356     10.38147      1.42586         0.007997      0.001753      0.002270
      6.58264      8.92174      1.32823         0.003917     -0.000343     -0.000205
      0.00790     10.37533      4.69157         0.002496      0.004900     -0.001950
      9.88631      8.90641      4.73066        -0.000576      0.001781      0.004417
[...]
     11.85904     10.38622      1.42115        -0.002238     -0.001008     -0.000438
      9.85401      8.89905      0.13591         0.001745     -0.000984      0.000721
      9.84426      8.90225      2.70672        -0.000181     -0.000847     -0.002203
     11.13271     10.37904      4.70778         0.001388     -0.003384      0.000319
      8.56368     10.38935      4.70694         0.000887     -0.002028      0.003293
      6.57085      8.98220      3.34949        -0.000735     -0.000138     -0.004439
      6.57117      8.88008      5.93876         0.000714     -0.000916      0.001100
      7.84258     10.36773      7.96486         0.008379     -0.002385     -0.000162
     11.85742     10.38191      7.99276        -0.003670     -0.001132     -0.001398
      9.85771      8.89975      6.70522        -0.002377      0.000467     -0.000509
      9.83607      8.89161      9.26751        -0.002009      0.000234     -0.002263
     11.13454     10.38383     11.27002         0.003070     -0.000405      0.001532
      8.56327     10.38468     11.26285         0.002143     -0.000996     -0.001596
      6.57235      8.87113      9.96948        -0.001199      0.000458      0.000366
      6.57253      8.91813     12.54600        -0.000690     -0.002672     -0.003769
    total drift:                                0.024149      0.006853      0.056656

  FREE ENERGIE OF THE ION-ELECTRON SYSTEM (eV)
  free  energy   TOTEN  =     -1708.71416980 eV

  energy  without entropy=    -1708.65506505  energy(sigma->0) =    -1708.68461742

 total charge

# of ion       s       p       d       tot
    1        2.214   6.283   1.693  10.190
    2        2.215   6.283   1.693  10.191
    3        2.215   6.288   1.750  10.253
    4        2.215   6.283   1.696  10.194
    5        2.215   6.282   1.698  10.196
    6        2.215   6.282   1.701  10.198
    7        2.213   6.281   1.719  10.214
    8        2.214   6.282   1.694  10.190
    9        2.214   6.283   1.694  10.191
   10        2.215   6.283   1.696  10.194
   11        2.235   6.280   1.860  10.375
   12        2.214   6.281   1.696  10.191
   13        2.215   6.283   1.696  10.194
   14        2.215   6.284   1.695  10.195
   15        2.221   6.291   1.726  10.238
   16        2.214   6.282   1.693  10.189
   17        2.214   6.283   1.695  10.192
   18        2.214   6.283   1.697  10.194
   19        2.235   6.280   1.860  10.375
   20        2.215   6.283   1.693  10.190
   21        2.215   6.283   1.696  10.194
   22        2.216   6.284   1.700  10.199
   23        2.221   6.291   1.727  10.238
   24        2.214   6.282   1.693  10.190
   25        2.215   6.283   1.694  10.191
   26        2.215   6.283   1.695  10.193
   27        2.215   6.288   1.749  10.253
   28        2.214   6.281   1.696  10.191
   29        2.215   6.282   1.697  10.194
   30        2.215   6.284   1.696  10.195
   31        2.213   6.281   1.720  10.214
   32        2.214   6.282   1.694  10.190
   33        2.215   6.283   1.693  10.190
   34        2.214   6.283   1.704  10.201
   35        2.214   6.282   1.695  10.191
   36        2.215   6.283   1.696  10.193
   37        2.215   6.283   1.695  10.192
   38        2.217   6.285   1.720  10.223
   39        2.214   6.282   1.694  10.190
   40        2.214   6.282   1.693  10.189
   41        2.214   6.283   1.694  10.191
   42        2.220   6.294   1.725  10.238
   43        2.213   6.280   1.692  10.185
   44        2.214   6.281   1.696  10.191
   45        2.215   6.283   1.699  10.197
   46        2.213   6.278   1.692  10.183
   47        2.214   6.282   1.694  10.191
   48        2.214   6.282   1.693  10.189
   49        2.214   6.283   1.694  10.191
   50        2.219   6.277   1.732  10.227
   51        2.213   6.280   1.693  10.186
   52        2.215   6.283   1.694  10.191
   53        2.215   6.283   1.700  10.198
   54        2.238   6.291   1.856  10.384
   55        2.214   6.282   1.694  10.190
   56        2.214   6.282   1.694  10.190
   57        2.215   6.282   1.695  10.192
   58        2.220   6.294   1.725  10.239
   59        2.214   6.282   1.695  10.190
   60        2.214   6.281   1.697  10.192
[...]
  177        1.573   3.492   0.000   5.064
  178        1.573   3.488   0.000   5.061
  179        1.573   3.487   0.000   5.061
  180        1.573   3.488   0.000   5.062
  181        1.573   3.490   0.000   5.063
  182        1.581   3.510   0.000   5.091
  183        1.573   3.496   0.000   5.069
  184        1.573   3.489   0.000   5.062
  185        1.574   3.488   0.000   5.061
  186        1.573   3.492   0.000   5.065
  187        1.573   3.488   0.000   5.061
  188        1.573   3.489   0.000   5.062
  189        1.573   3.489   0.000   5.062
  190        1.573   3.479   0.000   5.053
  191        1.576   3.515   0.000   5.091
tot        341.620 845.357 109.3201296.296