 vasp.6.2.0 18Jan21 (build Mar 03 2021 13:27:41) complex

 executed on             LinuxIFC date 2021.07.15  16:15:24

 INCAR:
   SYSTEM = TiO2-rutile
   ISMEAR = 0
   SIGMA = 0.05
   EDIFF = 1E-5
   ALGO = Fast
   ISTART = 1
   ISYM = 0
   METAGGA = R2SCAN
   IBRION = -1
   NSW = 0
   EDIFFG = -0.01
   ISIF = 0
   ENCUT = 500
   PREC = Accurate
   LASPH = .TRUE.
   LREAL = Auto
   ISPIN = 1
   NELM = 500
   NELMIN = 4
   NCORE = 20
   LWAVE = .FALSE.
   LCHARG = .FALSE.
   LORBIT = 11

 POTCAR:    PAW_PBE Ti_sv 26Sep2005
 POTCAR:    PAW_PBE O 08Apr2002
 POTCAR:    PAW_PBE Ti_sv 26Sep2005
   VRHFIN =Ti: 3p4s3d

   TITEL  = PAW_PBE Ti_sv 26Sep2005
   POMASS =   47.880; ZVAL   =   12.000    mass and valenz
   ENMAX  =  274.610; ENMIN  =  205.957 eV

   TITEL  = PAW_PBE O 08Apr2002
   POMASS =   16.000; ZVAL   =    6.000    mass and valenz
   ENMAX  =  400.000; ENMIN  =  300.000 eV

 Optimization of the real space projectors (new method)

 maximal supplied QI-value         = 16.25
 optimisation between [QCUT,QGAM] = [ 11.38, 22.75] = [ 36.24,144.96] Ry
 Optimized for a Real-space Cutoff    1.27 Angstroem

   l    n(q)    QCUT    max X(q) W(low)/X(q) W(high)/X(q)  e(spline)
   0      9    11.376    12.277    0.53E-04    0.25E-04    0.25E-07
   0      9    11.376    11.419    0.89E-04    0.67E-05    0.35E-07
   1      8    11.376     4.010    0.13E-03    0.11E-03    0.29E-07
   1      8    11.376     6.182    0.94E-04    0.19E-03    0.11E-06
   2      8    11.376    47.177    0.13E-03    0.88E-03    0.24E-06
   2      8    11.376    42.437    0.13E-03    0.86E-03    0.23E-06
 Optimization of the real space projectors (new method)

 maximal supplied QI-value         = 24.76
 optimisation between [QCUT,QGAM] = [ 11.39, 22.77] = [ 36.31,145.25] Ry
 Optimized for a Real-space Cutoff    1.10 Angstroem

   l    n(q)    QCUT    max X(q) W(low)/X(q) W(high)/X(q)  e(spline)
   0      7    11.387    20.381    0.22E-03    0.48E-03    0.18E-06
   0      7    11.387    15.268    0.22E-03    0.52E-03    0.19E-06
   1      7    11.387     5.964    0.22E-03    0.73E-03    0.24E-06
   1      7    11.387     5.382    0.19E-03    0.60E-03    0.21E-06
  PAW_PBE Ti_sv 26Sep2005               :
  PAW_PBE O 08Apr2002                   :

 POSCAR: Ti  O
  positions in direct lattice
  velocities in cartesian coordinates

 METAGGA = R2SCA    LMAXTAU =  6    LMIXTAU =  F

 ion  position               nearest neighbor table
   1  0.250  0.125  0.109-  68 1.95  83 1.95  67 1.96  84 1.96  65 1.97  66 1.99
   2  1.000  0.000  0.109- 130 1.95  65 1.95 177 1.95 113 1.95  71 1.98  80 1.98
   3  1.000  0.125  0.359-  71 1.95  87 1.95  72 1.95  88 1.95 133 1.99  70 1.99
   4  0.250  0.000  0.359-  69 1.95 117 1.95  70 1.96 118 1.96  75 1.98  68 1.98
   5  0.250  0.125  0.609-  76 1.95  75 1.95  91 1.96  92 1.96  73 1.98  74 1.99
   6  0.000  1.000  0.609- 121 1.96 185 1.96 138 1.96  73 1.96  79 1.98  72 1.98
   7  1.000  0.125  0.859-  95 1.95  79 1.95  96 1.95  80 1.95 141 1.99  78 1.99
   8  0.250  0.000  0.859-  78 1.95 126 1.95 125 1.96  77 1.96  67 1.97  76 1.99
   9  0.250  0.375  0.109-  99 1.95  83 1.95  84 1.95 100 1.96  81 1.97  82 1.99
  10  0.000  0.250  0.109- 146 1.95  81 1.95 130 1.95  65 1.95  96 1.98  87 1.98
  11  1.000  0.375  0.359- 103 1.95 104 1.95  87 1.95  88 1.95 149 2.00  86 2.00
  12  0.249  0.250  0.359-  70 1.94  86 1.94  69 1.96  91 1.97  84 1.98  85 2.00
  13  0.249  0.375  0.608- 107 1.95  92 1.95  91 1.95 108 1.96  89 1.97  90 2.01
  14  0.000  0.250  0.609- 138 1.95  73 1.95 154 1.96  89 1.96  95 1.98  88 1.98
  15  1.000  0.375  0.859- 111 1.95  95 1.95 112 1.95  96 1.95 157 1.99  94 1.99
  16  0.250  0.250  0.859-  78 1.95  94 1.95  77 1.96  93 1.96  92 1.98  83 1.98
  17  0.250  0.625  0.109-  99 1.95 115 1.95 116 1.95 100 1.96  97 1.98  98 1.99
  18  1.000  0.500  0.109- 146 1.95 162 1.95  81 1.95  97 1.95 112 1.98 103 1.98
  19  1.000  0.625  0.359- 103 1.95 104 1.95 119 1.95 120 1.95 165 2.00 102 2.00
  20  0.251  0.500  0.359- 102 1.95  86 1.96 101 1.96  85 1.96 100 1.97 107 1.98
  21  0.249  0.625  0.608- 107 1.95 124 1.95 123 1.95 108 1.96 105 1.97 106 2.01
  22  1.000  0.500  0.609- 154 1.95 169 1.95  89 1.95 105 1.95 111 1.98 104 1.99
  23  1.000  0.625  0.859- 111 1.95 127 1.95 112 1.95 128 1.95 172 1.99 110 1.99
  24  0.250  0.500  0.859-  94 1.95 110 1.95  93 1.96 109 1.96  99 1.98 108 1.99
  25  0.250  0.875  0.109-  68 1.95 115 1.95  67 1.96 116 1.96 113 1.97 114 1.99
  26  1.000  0.750  0.109- 162 1.95  97 1.95 177 1.95 113 1.95 128 1.98 119 1.98
  27  1.000  0.875  0.359-  71 1.95 119 1.95  72 1.95 120 1.95 180 1.99 118 1.99
  28  0.250  0.750  0.359- 118 1.94 102 1.94 117 1.96 123 1.97 116 1.98 101 2.00
  29  0.250  0.875  0.609-  76 1.95  75 1.95 123 1.96 124 1.96 121 1.98 122 1.99
  30  0.000  0.750  0.609- 121 1.95 185 1.95 105 1.96 169 1.96 127 1.98 120 1.98
  31  1.000  0.875  0.859- 127 1.95  79 1.95 128 1.95  80 1.95 188 1.99 126 1.99
  32  0.250  0.750  0.859- 126 1.95 110 1.95 125 1.96 109 1.96 124 1.98 115 1.98
  33  0.750  0.125  0.109- 132 1.95 147 1.95 131 1.96 148 1.96 130 1.97 129 1.99
  34  0.500  0.000  0.107-  66 1.95 129 1.95 114 1.95 176 1.95 135 1.99 144 1.99
  35  0.500  0.120  0.361- 136 1.90 135 1.93 152 1.97  69 1.97 134 1.97 151 2.00  59 2.84  43 2.85

  36  0.750  1.000  0.359- 134 1.95 181 1.95 180 1.96 133 1.96 139 1.98 132 1.98
  37  0.750  0.125  0.609- 140 1.95 139 1.95 155 1.96 156 1.96 138 1.98 137 1.99
  38  0.500  1.000  0.610- 143 1.94 122 1.96 184 1.96 137 1.96  74 1.96 136 1.97
  39  0.500  0.123  0.855- 143 1.93 144 1.95  77 1.97 142 1.97 160 1.98 159 1.98  63 2.92
  40  0.750  0.000  0.859- 141 1.95 188 1.95 189 1.96 142 1.96 131 1.97 140 1.99
  41  0.750  0.375  0.109- 163 1.95 147 1.95 148 1.95 164 1.96 146 1.98 145 1.99
  42  0.500  0.249  0.103- 160 1.91  66 1.94 129 1.94  82 1.96 145 1.96 151 2.00
  43  0.500  0.359  0.343- 151 1.78 167 1.91 152 1.93  85 1.96 150 1.96  35 2.85
  44  0.750  0.250  0.359- 133 1.94 149 1.94 134 1.96 155 1.97 148 1.98 150 2.00
  45  0.751  0.375  0.608- 170 1.95 156 1.95 155 1.95 171 1.96 154 1.97 153 2.01
  46  0.500  0.251  0.605-  74 1.95 137 1.95  90 1.97 153 1.97 152 1.98 159 2.01
  47  0.500  0.371  0.863- 160 1.89 159 1.94  93 1.97 158 1.97 174 1.98 175 1.99
  48  0.750  0.250  0.859- 141 1.95 157 1.95 142 1.96 158 1.96 156 1.98 147 1.98
  49  0.750  0.625  0.109- 163 1.95 178 1.95 179 1.95 164 1.96 162 1.98 161 1.99
  50  0.500  0.500  0.108- 175 1.92  98 1.95 161 1.95 145 1.95  82 1.95 167 2.13
  51  0.500  0.641  0.343- 182 1.78 167 1.91 183 1.93 101 1.96 166 1.96  59 2.85
  52  0.749  0.500  0.359- 149 1.96 165 1.96 150 1.96 166 1.96 164 1.97 170 1.97
  53  0.751  0.625  0.608- 170 1.95 187 1.95 186 1.95 171 1.96 169 1.97 168 2.01
  54  0.500  0.500  0.630- 174 1.78 153 1.93  90 1.93 106 1.93 168 1.93
  55  0.500  0.629  0.863- 191 1.89 190 1.94 109 1.97 173 1.97 174 1.98 175 1.99
  56  0.750  0.500  0.859- 157 1.95 172 1.95 158 1.96 173 1.96 163 1.98 171 1.99
  57  0.750  0.875  0.109- 132 1.95 178 1.95 131 1.96 179 1.96 177 1.97 176 1.99
  58  0.500  0.751  0.103- 191 1.91 114 1.94 176 1.94  98 1.96 161 1.96 182 2.00
  59  0.500  0.880  0.361- 136 1.90 135 1.93 183 1.97 181 1.97 117 1.97 182 2.00  35 2.84  51 2.85

  60  0.750  0.750  0.359- 180 1.94 165 1.94 181 1.96 186 1.97 179 1.98 166 2.00
  61  0.750  0.875  0.609- 140 1.95 139 1.95 186 1.96 187 1.96 185 1.98 184 1.99
  62  0.500  0.749  0.605- 122 1.95 184 1.95 106 1.97 168 1.97 183 1.98 190 2.01
  63  0.500  0.877  0.855- 143 1.93 144 1.95 125 1.97 189 1.97 190 1.98 191 1.98  39 2.92
  64  0.750  0.750  0.859- 188 1.95 172 1.95 189 1.96 173 1.96 187 1.98 178 1.98
  65  0.098  0.125  0.109-   2 1.95  10 1.95   1 1.97
  66  0.402  0.125  0.107-  42 1.94  34 1.95   1 1.99
  67  0.250  0.000  0.011-   1 1.96  25 1.96   8 1.97
  68  0.250  0.000  0.207-   1 1.95  25 1.95   4 1.98
  69  0.348  0.125  0.359-   4 1.95  12 1.96  35 1.97
  70  0.153  0.126  0.359-  12 1.94   4 1.96   3 1.99
  71  1.000  0.000  0.261-  27 1.95   3 1.95   2 1.98
  72  1.000  1.000  0.457-   3 1.95  27 1.95   6 1.98
  73  0.098  0.125  0.609-  14 1.95   6 1.96   5 1.98
  74  0.403  0.126  0.607-  46 1.95  38 1.96   5 1.99
  75  0.250  0.000  0.511-   5 1.95  29 1.95   4 1.98
  76  0.251  0.000  0.706-   5 1.95  29 1.95   8 1.99
  77  0.348  0.125  0.858-  16 1.96   8 1.96  39 1.97
  78  0.153  0.125  0.858-  16 1.95   8 1.95   7 1.99
  79  0.000  1.000  0.761-  31 1.95   7 1.95   6 1.98
  80  0.000  1.000  0.957-   7 1.95  31 1.95   2 1.98
  81  0.098  0.375  0.109-  10 1.95  18 1.95   9 1.97
  82  0.403  0.375  0.111-  50 1.95  42 1.96   9 1.99
  83  0.250  0.250  0.011-   9 1.95   1 1.95  16 1.98
  84  0.251  0.250  0.207-   9 1.95   1 1.96  12 1.98
  85  0.351  0.376  0.362-  43 1.96  20 1.96  12 2.00
  86  0.153  0.375  0.359-  12 1.94  20 1.96  11 2.00
  87  1.000  0.250  0.261-  11 1.95   3 1.95  10 1.98
  88  1.000  0.250  0.457-  11 1.95   3 1.95  14 1.98
  89  0.098  0.375  0.609-  22 1.95  14 1.96  13 1.97
  90  0.404  0.380  0.603-  54 1.93  46 1.97  13 2.01
  91  0.250  0.250  0.511-  13 1.95   5 1.96  12 1.97
  92  0.252  0.251  0.706-  13 1.95   5 1.96  16 1.98
  93  0.349  0.375  0.860-  24 1.96  16 1.96  47 1.97
  94  0.153  0.375  0.859-  24 1.95  16 1.95  15 1.99
  95  0.000  0.250  0.761-  15 1.95   7 1.95  14 1.98
  96  0.000  0.250  0.957-   7 1.95  15 1.95  10 1.98
  97  0.098  0.625  0.109-  26 1.95  18 1.95  17 1.98
  98  0.403  0.625  0.111-  50 1.95  58 1.96  17 1.99
  99  0.251  0.500  0.012-   9 1.95  17 1.95  24 1.98
 100  0.251  0.500  0.207-  17 1.96   9 1.96  20 1.97
 101  0.351  0.624  0.362-  51 1.96  20 1.96  28 2.00
 102  0.153  0.625  0.359-  28 1.94  20 1.95  19 2.00
 103  1.000  0.500  0.261-  11 1.95  19 1.95  18 1.98
 104  1.000  0.500  0.457-  19 1.95  11 1.95  22 1.99
 105  0.098  0.625  0.609-  22 1.95  30 1.96  21 1.97
 106  0.404  0.620  0.603-  54 1.93  62 1.97  21 2.01
 107  0.248  0.500  0.511-  21 1.95  13 1.95  20 1.98
 108  0.252  0.500  0.707-  21 1.96  13 1.96  24 1.99
 109  0.349  0.625  0.860-  24 1.96  32 1.96  55 1.97
 110  0.153  0.625  0.859-  24 1.95  32 1.95  23 1.99
 111  0.000  0.500  0.761-  15 1.95  23 1.95  22 1.98
 112  0.000  0.500  0.957-  23 1.95  15 1.95  18 1.98
 113  0.098  0.875  0.109-   2 1.95  26 1.95  25 1.97
 114  0.402  0.875  0.107-  58 1.94  34 1.95  25 1.99
 115  0.250  0.750  0.011-  17 1.95  25 1.95  32 1.98
 116  0.251  0.750  0.207-  17 1.95  25 1.96  28 1.98
 117  0.348  0.875  0.359-   4 1.95  28 1.96  59 1.97
 118  0.153  0.874  0.359-  28 1.94   4 1.96  27 1.99
 119  1.000  0.750  0.261-  27 1.95  19 1.95  26 1.98
[...]
 177  0.902  0.875  0.109-   2 1.95  26 1.95  57 1.97
 178  0.750  0.750  0.011-  49 1.95  57 1.95  64 1.98
 179  0.749  0.750  0.207-  49 1.95  57 1.96  60 1.98
 180  0.847  0.874  0.359-  60 1.94  36 1.96  27 1.99
 181  0.652  0.875  0.359-  36 1.95  60 1.96  59 1.97
 182  0.500  0.757  0.256-  51 1.78  59 2.00  58 2.00
 183  0.500  0.749  0.454-  51 1.93  59 1.97  62 1.98
 184  0.597  0.874  0.607-  62 1.95  38 1.96  61 1.99
 185  0.902  0.875  0.609-  30 1.95   6 1.96  61 1.98
 186  0.750  0.750  0.511-  53 1.95  61 1.96  60 1.97
[...]
   -.436E+01 -.528E-02 0.181E+02   0.434E+01 0.549E-02 -.180E+02   0.254E-01 0.297E-03 -.321E-01   -.316E-02 -.275E-03 0.752E-02
   0.330E+01 0.685E+01 -.964E+01   -.334E+01 -.686E+01 0.963E+01   0.466E-01 0.134E-01 0.361E-02   -.205E-02 -.772E-03 0.357E-02
   -.285E-01 0.466E+01 -.512E+01   0.269E-01 -.466E+01 0.512E+01   -.376E-04 -.456E-03 0.535E-03   0.203E-02 0.484E-03 0.179E-02
   -.707E-01 0.468E+01 -.421E+01   0.684E-01 -.473E+01 0.423E+01   0.141E-02 0.511E-01 -.478E-02   0.990E-03 0.107E-03 -.815E-02
   -.326E+02 0.440E+02 -.133E+02   0.322E+02 -.438E+02 0.134E+02   0.418E+00 -.193E+00 -.103E+00   0.155E-02 -.129E-02 -.703E-02
   -.858E+01 0.190E+02 0.357E+01   0.855E+01 -.190E+02 -.359E+01   0.347E-01 0.239E-02 0.200E-01   -.159E-02 -.905E-03 -.313E-02
   -.402E-01 0.947E+01 0.700E+01   0.387E-01 -.944E+01 -.698E+01   -.720E-03 -.291E-01 -.162E-01   0.211E-02 -.130E-03 -.152E-02
   -.165E-01 0.242E+01 0.287E+01   0.149E-01 -.246E+01 -.287E+01   0.493E-03 0.428E-01 -.335E-02   0.125E-02 0.163E-03 0.826E-02
   0.379E+00 0.913E+01 0.141E+02   -.440E+00 -.911E+01 -.142E+02   0.688E-01 -.168E-01 0.124E-01   -.360E-02 -.988E-03 0.714E-02
   -.331E+01 -.691E+01 -.964E+01   0.335E+01 0.692E+01 0.964E+01   -.464E-01 -.131E-01 0.308E-02   0.318E-02 0.416E-03 0.418E-02
   0.400E-02 0.306E-01 -.114E+02   -.254E-02 -.334E-01 0.113E+02   0.649E-04 0.315E-03 0.822E-01   -.200E-02 0.304E-03 0.805E-02
   -.422E-01 -.580E+02 -.186E+02   0.417E-01 0.574E+02 0.188E+02   0.215E-02 0.539E+00 -.159E+00   -.254E-02 0.227E-02 -.896E-02
   -.762E+01 0.210E-01 -.298E+01   0.748E+01 -.240E-01 0.297E+01   0.126E+00 0.121E-02 0.162E-01   0.914E-03 0.195E-03 -.723E-02
   0.858E+01 -.191E+02 0.355E+01   -.855E+01 0.191E+02 -.357E+01   -.352E-01 -.159E-02 0.202E-01   0.267E-02 0.403E-03 -.418E-02
   0.693E-02 -.492E-01 0.366E+01   -.534E-02 0.457E-01 -.345E+01   0.736E-04 0.190E-02 -.204E+00   -.242E-02 0.259E-03 -.721E-02
   -.130E-01 -.233E+02 0.258E+02   0.141E-01 0.229E+02 -.258E+02   0.721E-03 0.372E+00 -.349E-01   -.232E-02 0.175E-02 0.899E-02
   -.463E+01 -.143E-01 0.791E+01   0.466E+01 0.139E-01 -.786E+01   -.394E-01 0.859E-04 -.621E-01   0.580E-02 0.649E-04 0.766E-02
   0.596E+01 -.938E+01 -.187E+02   -.592E+01 0.936E+01 0.187E+02   -.557E-01 0.262E-01 -.127E-01   0.144E-02 0.807E-03 0.405E-02
   -.996E-02 -.283E+02 -.219E+02   0.117E-01 0.280E+02 0.214E+02   0.206E-03 0.299E+00 0.494E+00   -.222E-02 0.160E-02 0.741E-02
   -.616E-01 -.265E+03 -.182E+03   0.625E-01 0.263E+03 0.180E+03   0.124E-02 0.170E+01 0.195E+01   -.174E-02 0.216E-02 -.756E-02
   0.327E+02 -.441E+02 -.132E+02   -.323E+02 0.439E+02 0.133E+02   -.419E+00 0.193E+00 -.104E+00   -.742E-03 0.451E-03 -.695E-02
   0.558E+02 -.188E+02 0.257E+02   -.556E+02 0.188E+02 -.258E+02   -.242E+00 -.132E-01 0.715E-01   0.872E-03 0.519E-03 -.400E-02
   0.131E-01 -.908E+02 0.435E+02   -.123E-01 0.907E+02 -.437E+02   0.432E-03 0.156E+00 0.277E+00   -.191E-02 0.238E-02 -.783E-02
   0.112E-01 -.354E+02 0.269E+02   -.104E-01 0.350E+02 -.268E+02   0.730E-03 0.405E+00 -.117E+00   -.206E-02 0.375E-02 0.842E-02
   -.394E+00 -.910E+01 0.141E+02   0.453E+00 0.908E+01 -.142E+02   -.676E-01 0.168E-01 0.120E-01   0.421E-02 0.177E-02 0.741E-02
   0.593E+01 0.941E+01 -.187E+02   -.589E+01 -.938E+01 0.187E+02   -.552E-01 -.262E-01 -.131E-01   0.956E-03 -.157E-02 0.324E-02
   0.123E-01 0.921E-01 -.874E+02   -.976E-02 -.945E-01 0.858E+02   -.287E-03 -.209E-03 0.164E+01   -.232E-02 -.265E-04 0.614E-02
   0.852E-02 0.265E+03 -.183E+03   -.908E-02 -.263E+03 0.181E+03   -.154E-02 -.169E+01 0.196E+01   -.212E-02 -.237E-02 -.702E-02
   0.870E+02 0.461E-01 -.336E+02   -.870E+02 -.517E-01 0.336E+02   -.546E-01 0.274E-02 0.170E-01   -.159E-02 -.138E-03 -.666E-02
   0.558E+02 0.188E+02 0.257E+02   -.556E+02 -.189E+02 -.257E+02   -.245E+00 0.123E-01 0.714E-01   0.413E-03 -.162E-02 -.442E-02
   0.700E-01 0.163E-01 0.265E+03   -.677E-01 -.191E-01 -.262E+03   -.871E-03 0.198E-02 -.311E+01   -.220E-02 0.140E-03 -.634E-02
   0.284E-01 0.354E+02 0.269E+02   -.273E-01 -.350E+02 -.268E+02   0.511E-03 -.398E+00 -.118E+00   -.219E-02 -.323E-02 0.776E-02
   0.434E+01 0.195E-01 0.180E+02   -.433E+01 -.186E-01 -.180E+02   -.254E-01 -.438E-04 -.330E-01   0.350E-02 -.775E-03 0.760E-02
   -.329E+01 0.688E+01 -.962E+01   0.333E+01 -.690E+01 0.962E+01   -.465E-01 0.130E-01 0.331E-02   0.319E-02 0.576E-03 0.298E-02
   -.933E-03 0.282E+02 -.217E+02   0.329E-02 -.279E+02 0.212E+02   0.268E-03 -.301E+00 0.495E+00   -.241E-02 -.187E-02 0.680E-02
   0.613E-02 0.580E+02 -.186E+02   -.352E-02 -.575E+02 0.187E+02   -.879E-03 -.542E+00 -.157E+00   -.267E-02 -.183E-02 -.886E-02
   0.327E+02 0.439E+02 -.132E+02   -.323E+02 -.437E+02 0.133E+02   -.415E+00 -.199E+00 -.103E+00   -.208E-04 -.100E-02 -.708E-02
[...]
   -.147E+01 0.373E+01 0.608E+02   0.137E+01 -.375E+01 -.653E+02   0.100E+00 0.175E-01 0.455E+01   0.130E-02 -.350E-03 0.834E-02
   0.671E+01 0.879E+01 -.705E+02   -.703E+01 -.871E+01 0.749E+02   0.322E+00 -.775E-01 -.438E+01   0.402E-03 -.598E-03 -.532E-02
   -.626E+02 0.122E+01 -.258E+01   0.674E+02 -.848E+00 0.261E+01   -.479E+01 -.374E+00 -.266E-01   -.309E-02 0.435E-03 -.377E-02
   0.567E+02 0.205E+02 -.466E+01   -.609E+02 -.211E+02 0.454E+01   0.421E+01 0.568E+00 0.117E+00   0.415E-02 -.337E-03 -.346E-02
   -.973E-03 -.255E+02 0.648E+02   0.200E-02 0.330E+02 -.733E+02   0.292E-03 -.747E+01 0.851E+01   -.118E-02 -.630E-03 -.243E-02
   0.150E-01 0.835E+02 -.822E+02   -.152E-01 -.839E+02 0.874E+02   0.133E-02 0.434E+00 -.516E+01   -.930E-03 -.199E-02 -.687E-02
   -.615E+02 0.180E+02 0.551E+01   0.662E+02 -.179E+02 -.561E+01   -.464E+01 -.623E-01 0.103E+00   0.113E-01 -.416E-03 -.316E-02
   0.637E+02 0.280E+01 0.178E+01   -.681E+02 -.273E+01 -.177E+01   0.442E+01 -.770E-01 -.135E-01   -.978E-02 0.433E-04 -.113E-02
   0.176E+02 0.176E+02 0.613E+02   -.177E+02 -.175E+02 -.655E+02   0.129E+00 -.971E-01 0.428E+01   0.391E-03 -.518E-03 -.154E-03
   0.138E+02 0.903E+01 -.515E+02   -.144E+02 -.902E+01 0.561E+02   0.554E+00 -.125E-01 -.451E+01   0.167E-02 -.442E-03 -.323E-02
   -.634E+02 0.154E+01 0.462E+01   0.680E+02 -.149E+01 -.476E+01   -.466E+01 -.512E-01 0.132E+00   -.207E-02 -.883E-04 0.395E-02
   0.542E+02 0.501E+01 0.642E+01   -.584E+02 -.511E+01 -.635E+01   0.415E+01 0.102E+00 -.811E-01   0.904E-02 -.717E-03 0.351E-02
   0.674E-02 0.119E+02 0.911E+02   -.589E-02 -.116E+02 -.962E+02   0.563E-03 -.260E+00 0.510E+01   -.122E-02 -.249E-02 0.359E-04
   -.189E-01 -.137E+02 -.452E+02   0.232E-01 0.161E+02 0.483E+02   -.303E-02 -.240E+01 -.314E+01   -.105E-02 -.265E-02 0.970E-02
   -.865E-01 -.834E-01 -.128E+02   0.417E-11 0.206E-11 -.149E-12   0.846E-01 0.745E-01 0.126E+02   -.308E-03 -.683E-03 0.562E-02

 POSITION                                       TOTAL-FORCE (eV/Angst)
      3.24802      1.48089      1.41738         0.004914     -0.001918      0.001437
     13.01607      0.00004      1.41760         0.000479     -0.000457     -0.003568
     13.01603      1.48106      4.67187         0.002036      0.002035      0.002062
      3.25682      0.00010      4.67226         0.015395      0.000958      0.002359
      3.25408      1.48012      7.92565         0.006374      0.002059      0.000253
      0.00002     11.84435      7.92798        -0.000445      0.000898      0.007436
     13.01607      1.48089     11.17735         0.000269     -0.002994      0.002599
      3.25488      0.00001     11.18370         0.004193     -0.000143     -0.000846
      3.25008      4.44179      1.42117         0.006584     -0.000279     -0.000209
      0.00000      2.96261      1.41578         0.000338      0.002021     -0.003351
     13.01578      4.44343      4.66974        -0.002455     -0.002058      0.003991
      3.24748      2.95755      4.67765         0.008833     -0.002852      0.001781
      3.24329      4.44572      7.91726         0.008599      0.000506      0.004375
      0.00000      2.95797      7.92519        -0.000474     -0.003810      0.008598
     13.01606      4.44254     11.17822         0.000618     -0.005414      0.002168
      3.25375      2.96152     11.17685         0.004189      0.000547     -0.004428
      3.25012      7.40261      1.42116         0.005347     -0.000798     -0.001033
     13.01607      5.92218      1.41794         0.000139      0.000060     -0.000121
     13.01575      7.40099      4.66983        -0.000161      0.000213      0.004495
      3.27175      5.92249      4.67251         0.008028     -0.000726      0.003231
      3.24336      7.39862      7.91726         0.006537     -0.000036      0.003869
     13.01607      5.92219      7.92867         0.000224     -0.000391     -0.001146
     13.01607      7.40184     11.17821         0.000493      0.005191      0.002350
      3.25577      5.92218     11.18433         0.005527      0.000276     -0.004174
      3.24802     10.36347      1.41737         0.005416      0.003242      0.000488
     13.01607      8.88175      1.41574         0.000392     -0.001671     -0.004763
     13.01604     10.36325      4.67140         0.000165     -0.003459      0.001723
      3.24773      8.88734      4.67753         0.010948      0.006360      0.004201
      3.25415     10.36423      7.92566         0.007015     -0.001561     -0.000291
      0.00004      8.88645      7.92515        -0.000059      0.003190      0.008468
     13.01607     10.36348     11.17733         0.000203      0.003512      0.002965
      3.25372      8.88287     11.17677         0.004782     -0.000672     -0.003299
      9.76804      1.48088      1.41740        -0.004690     -0.000924      0.000273
      6.50805      0.00003      1.39822        -0.000465     -0.002189      0.000602
      6.50778      1.41789      4.70175        -0.000795     -0.007938     -0.008306
      9.75915     11.84435      4.67224        -0.014596     -0.001559      0.002922
      9.76191      1.48012      7.92564        -0.004760      0.002509     -0.000646
      6.50805     11.84433      7.93666        -0.000741     -0.001329     -0.006645
      6.50803      1.45912     11.13488        -0.000428     -0.002564     -0.009938
      9.76121      0.00001     11.18370        -0.004202     -0.000275     -0.000638
      9.76599      4.44181      1.42117        -0.006447      0.000843      0.000820
      6.50805      2.94371      1.33474        -0.000269      0.002436      0.000957
      6.50779      4.25412      4.46287         0.000455     -0.002039     -0.003832
      9.76837      2.95701      4.67759        -0.012159     -0.003630      0.003128
      9.77264      4.44576      7.91737        -0.006098     -0.001286      0.001772
      6.50797      2.97351      7.87981        -0.000634      0.002004     -0.008005
      6.50804      4.39019     11.23097        -0.000529     -0.000363     -0.007958
      9.76235      2.96153     11.17681        -0.004362      0.000321     -0.002983
      9.76595      7.40258      1.42119        -0.005316     -0.001486     -0.000306
      6.50804      5.92224      1.40180        -0.000082     -0.002597     -0.001463
      6.50800      7.58997      4.46240        -0.004204      0.008125      0.002250
      9.74375      5.92213      4.67282        -0.006765     -0.002966      0.001503
      9.77282      7.39870      7.91733        -0.007945     -0.000497      0.002464
      6.50808      5.92216      8.19592        -0.000850     -0.000630     -0.007434
      6.50805      7.45392     11.23100        -0.000561      0.002719     -0.006057
      9.76032      5.92219     11.18433        -0.005633      0.000153     -0.003153
      9.76806     10.36349      1.41742        -0.005430      0.001650     -0.000448
      6.50804      8.90064      1.33456         0.000225      0.001574      0.000978
      6.50810     10.42655      4.70151        -0.000930      0.005330     -0.007022
      9.76845      8.88699      4.67758        -0.006979      0.002331      0.003278
[...]
     11.74136     10.36317      1.41837         0.007773     -0.000949      0.001066
      9.75596      8.87981      0.14474         0.001167      0.000004      0.004520
      9.74715      8.88345      2.69731        -0.001057     -0.000983     -0.003086
     11.03033     10.35656      4.67539         0.001613      0.001196     -0.002563
      8.48175     10.36871      4.67754         0.014389     -0.001385     -0.003666
      6.50805      8.96562      3.33660         0.000152     -0.005279     -0.006166
      6.50801      8.86770      5.90366         0.000217     -0.005223      0.004587
      7.77334     10.34887      7.90701         0.007782      0.001438     -0.001430
     11.73978     10.36200      7.92736         0.002174     -0.000080      0.002963
      9.75909      8.88093      6.65072         0.002442      0.000852      0.001053
      9.73716      8.87100      9.19313         0.003259      0.000633     -0.002526
     11.03060     10.36109     11.17227         0.001202      0.000912      0.002263
      8.48030     10.36149     11.16783         0.003936      0.000892      0.001429
      6.50806      8.84931      9.88464         0.000216      0.000192     -0.000996
      6.50818      8.90108     12.44484         0.000298     -0.000503      0.004331
    total drift:                               -0.002304     -0.009541     -0.163289

  FREE ENERGIE OF THE ION-ELECTRON SYSTEM (eV)
  free  energy   TOTEN  =     -2222.51472950 eV

  energy  without entropy=    -2222.46232302  energy(sigma->0) =    -2222.48852626

 total charge

# of ion       s       p       d       tot
    1        2.216   6.296   1.642  10.154
    2        2.216   6.296   1.642  10.153
    3        2.215   6.296   1.642  10.153
    4        2.216   6.297   1.645  10.158
    5        2.216   6.296   1.642  10.153
    6        2.216   6.296   1.642  10.153
    7        2.216   6.296   1.642  10.154
    8        2.215   6.295   1.642  10.153
    9        2.216   6.296   1.643  10.155
   10        2.216   6.297   1.643  10.156
   11        2.214   6.294   1.640  10.147
   12        2.215   6.294   1.642  10.152
   13        2.216   6.297   1.644  10.157
   14        2.216   6.297   1.644  10.157
   15        2.216   6.296   1.642  10.154
   16        2.216   6.296   1.642  10.154
   17        2.216   6.296   1.643  10.155
   18        2.216   6.297   1.643  10.156
   19        2.214   6.293   1.640  10.147
   20        2.216   6.296   1.642  10.154
   21        2.216   6.297   1.644  10.157
   22        2.216   6.297   1.643  10.156
   23        2.216   6.296   1.642  10.154
   24        2.216   6.296   1.643  10.154
   25        2.216   6.296   1.642  10.154
   26        2.216   6.297   1.643  10.156
   27        2.215   6.296   1.642  10.153
   28        2.215   6.294   1.642  10.152
   29        2.216   6.296   1.642  10.153
   30        2.216   6.297   1.644  10.157
   31        2.216   6.296   1.642  10.154
   32        2.216   6.296   1.642  10.154
   33        2.216   6.296   1.642  10.154
   34        2.215   6.296   1.649  10.160
   35        2.217   6.301   1.698  10.216
   36        2.216   6.297   1.645  10.158
   37        2.216   6.296   1.642  10.153
   38        2.218   6.300   1.659  10.177
   39        2.214   6.293   1.665  10.172
   40        2.215   6.295   1.642  10.153
   41        2.216   6.296   1.643  10.155
   42        2.221   6.307   1.673  10.201
   43        2.237   6.290   1.806  10.333
   44        2.215   6.294   1.643  10.152
   45        2.216   6.297   1.644  10.157
   46        2.213   6.289   1.634  10.136
   47        2.220   6.303   1.667  10.191
   48        2.216   6.296   1.642  10.154
   49        2.216   6.296   1.643  10.155
   50        2.215   6.289   1.652  10.156
   51        2.237   6.290   1.806  10.333
   52        2.216   6.296   1.642  10.154
   53        2.216   6.297   1.644  10.157
   54        2.240   6.303   1.805  10.347
   55        2.220   6.303   1.667  10.191
   56        2.216   6.296   1.643  10.154
   57        2.216   6.296   1.642  10.154
   58        2.221   6.307   1.673  10.201
   59        2.217   6.301   1.698  10.216
   60        2.215   6.294   1.643  10.152
[...]
  177        1.578   3.530   0.000   5.109
  178        1.578   3.529   0.000   5.107
  179        1.578   3.529   0.000   5.106
  180        1.578   3.530   0.000   5.108
  181        1.578   3.531   0.000   5.109
  182        1.587   3.548   0.000   5.135
  183        1.579   3.531   0.000   5.109
  184        1.578   3.528   0.000   5.106
  185        1.578   3.529   0.000   5.108
  186        1.578   3.531   0.000   5.110
  187        1.578   3.528   0.000   5.106
  188        1.578   3.529   0.000   5.107
  189        1.578   3.530   0.000   5.108
  190        1.577   3.521   0.000   5.097
  191        1.582   3.555   0.000   5.137
tot        342.331 851.324 105.8911299.546