 vasp.6.2.0 18Jan21 (build Mar 03 2021 13:27:41) complex

 executed on             LinuxIFC date 2021.05.07  16:33:18

 INCAR:
   SYSTEM = TiO2-rutile
   ISMEAR = 0
   SIGMA = 0.05
   EDIFF = 1E-6
   ALGO = Fast
   ISTART = 0
   IBRION = 2
   NSW = 200
   EDIFFG = -0.01
   ISIF = 3
   ENCUT = 700
   PREC = Accurate
   LASPH = .TRUE.
   LREAL = .FALSE.
   ISPIN = 2
   MAGMOM = 6*1.0
   NELM = 60
   NELMIN = 4
   LWAVE = .FALSE.
   LCHARG = .FALSE.
   LORBIT = 11

 POTCAR:    PAW Ti_sv 26Sep2005
 POTCAR:    PAW O 22Mar2012
|           W    W    AA    RRRRR   N    N  II  N    N   GGGG   !!!           |
|           W    W   A  A   R    R  NN   N  II  NN   N  G    G  !!!           |
|           W    W  A    A  R    R  N N  N  II  N N  N  G       !!!           |
|           W WW W  AAAAAA  RRRRR   N  N N  II  N  N N  G  GGG   !            |
|           WW  WW  A    A  R   R   N   NN  II  N   NN  G    G                |
|           W    W  A    A  R    R  N    N  II  N    N   GGGG   !!!           |
|     For optimal performance we recommend to set                             |
|       NCORE = 2 up to number-of-cores-per-socket                            |
|     This setting can greatly improve the performance of VASP for DFT.       |
|     The default, NCORE=1 might be grossly inefficient on modern             |
|     multi-core architectures or massively parallel machines. Do your        |
|     Unfortunately you need to use the default for GW and RPA                |
|     calculations (for HF NCORE is supported but not extensively tested      |
|     yet).                                                                   |

   TITEL  = PAW Ti_sv 26Sep2005
   POMASS =   47.880; ZVAL   =   12.000    mass and valenz
   ENMAX  =  274.719; ENMIN  =  206.039 eV

   TITEL  = PAW O 22Mar2012
   POMASS =   16.000; ZVAL   =    6.000    mass and valenz
   ENMAX  =  400.000; ENMIN  =  300.000 eV

  PAW Ti_sv 26Sep2005                   :
  PAW O 22Mar2012                       :

 POSCAR: Ti2 O4
  positions in direct lattice
  velocities in cartesian coordinates
 exchange correlation table for  LEXCH =        2
   RHO(1)=    0.500       N(1)  =     2000
   RHO(2)=  100.500       N(2)  =     4000

 ion  position               nearest neighbor table
   1  0.500  0.500  0.500-   5 1.96   6 1.96   5 1.96   6 1.96   3 2.01   4 2.01
   2  0.000  0.000  0.000-   3 1.96   4 1.96   3 1.96   4 1.96   5 2.01   6 2.01
   3  0.195  0.805  0.500-   2 1.96   2 1.96   1 2.01
   4  0.805  0.195  0.500-   2 1.96   2 1.96   1 2.01
   5  0.305  0.305  0.000-   1 1.96   1 1.96   2 2.01
   6  0.695  0.695  0.000-   1 1.96   1 1.96   2 2.01

  LATTYP: Found a simple tetragonal cell.
 ALAT       =     4.6493539123
 C/A-ratio  =     0.6383500501

  Lattice vectors:

 A1 = (   4.6493539123,   0.0000000000,   0.0000000000)
 A2 = (   0.0000000000,   4.6493539123,   0.0000000000)
 A3 = (   0.0000000000,   0.0000000000,   2.9679153030)

Analysis of symmetry for initial positions (statically):
 Subroutine PRICEL returns:
 Original cell was already a primitive cell.

 Routine SETGRP: Setting up the symmetry group for a
 simple tetragonal supercell.

 Subroutine GETGRP returns: Found 16 space group operations
 (whereof  8 operations were pure point group operations)
 out of a pool of 16 trial point group operations.

The static configuration has the point symmetry D_2h.
 The point group associated with its full space group is D_4h.

Analysis of symmetry for dynamics (positions and initial velocities):
 Subroutine PRICEL returns:
 Original cell was already a primitive cell.

[...]

The dynamic configuration has the point symmetry D_2h.
 The point group associated with its full space group is D_4h.

Analysis of structural, dynamic, and magnetic symmetry:
 Subroutine PRICEL returns:
 Original cell was already a primitive cell.

 Routine SETGRP: Setting up the symmetry group for a
 simple tetragonal supercell.

 Subroutine GETGRP returns: Found 16 space group operations
 (whereof  8 operations were pure point group operations)
 out of a pool of 16 trial point group operations.

The overall configuration has the point symmetry D_2h.
 The point group associated with its full space group is D_4h.

 Subroutine INISYM returns: Found 16 space group operations
 (whereof  8 operations are pure point group operations),
 and found     1 'primitive' translations

                                     Primitive cell

  volume of cell :      64.1559

  direct lattice vectors                    reciprocal lattice vectors
     4.649353912  0.000000000  0.000000000     0.215083648  0.000000000  0.000000000
     0.000000000  4.649353912  0.000000000     0.000000000  0.215083648  0.000000000
     0.000000000  0.000000000  2.967915303     0.000000000  0.000000000  0.336936839

  length of vectors
     4.649353912  4.649353912  2.967915303     0.215083648  0.215083648  0.336936839

  position of ions in fractional coordinates (direct lattice)
     0.500000000  0.500000000  0.500000000
     0.000000000  0.000000000  0.000000000
     0.195061748  0.804938252  0.500000000
     0.804938252  0.195061748  0.500000000
     0.304938252  0.304938252  0.000000000
     0.695061748  0.695061748  0.000000000

  ion indices of the primitive-cell ions
   primitive index   ion index
                 1           1
                 2           2
                 3           3
                 4           4
                 5           5
                 6           6

 KPOINTS: pymatgen v2020.8.13 with grid density =

Automatic generation of k-mesh.
 Grid dimensions read from file:
 generate k-points for:    7    7   11

 Generating k-lattice:

  Cartesian coordinates                     Fractional coordinates (reciprocal lattice)
     0.030726235  0.000000000  0.000000000     0.142857143  0.000000000  0.000000000
     0.000000000  0.030726235  0.000000000     0.000000000  0.142857143  0.000000000
     0.000000000  0.000000000  0.030630622     0.000000000  0.000000000  0.090909091

  Length of vectors
     0.030726235  0.030726235  0.030630622

  Shift w.r.t. Gamma in fractional coordinates (k-lattice)
     0.000000000  0.000000000  0.000000000

 Subroutine IBZKPT returns following result:

 Found     60 irreducible k-points:

 Following reciprocal coordinates:
            Coordinates               Weight
  0.000000  0.000000  0.000000      1.000000
  0.142857  0.000000  0.000000      4.000000
  0.285714  0.000000  0.000000      4.000000
  0.428571  0.000000  0.000000      4.000000
  0.142857  0.142857  0.000000      4.000000
  0.285714  0.142857  0.000000      8.000000
  0.428571  0.142857  0.000000      8.000000
  0.285714  0.285714  0.000000      4.000000
  0.428571  0.285714  0.000000      8.000000
  0.428571  0.428571  0.000000      4.000000
  0.000000  0.000000  0.090909      2.000000
  0.142857  0.000000  0.090909      8.000000
  0.285714  0.000000  0.090909      8.000000
  0.428571  0.000000  0.090909      8.000000
  0.142857  0.142857  0.090909      8.000000
  0.285714  0.142857  0.090909     16.000000
  0.428571  0.142857  0.090909     16.000000
  0.285714  0.285714  0.090909      8.000000
  0.428571  0.285714  0.090909     16.000000
  0.428571  0.428571  0.090909      8.000000
  0.000000  0.000000  0.181818      2.000000
  0.142857  0.000000  0.181818      8.000000
  0.285714  0.000000  0.181818      8.000000
  0.428571  0.000000  0.181818      8.000000
  0.142857  0.142857  0.181818      8.000000
  0.285714  0.142857  0.181818     16.000000
  0.428571  0.142857  0.181818     16.000000
  0.285714  0.285714  0.181818      8.000000
  0.428571  0.285714  0.181818     16.000000
  0.428571  0.428571  0.181818      8.000000
  0.000000  0.000000  0.272727      2.000000
  0.142857  0.000000  0.272727      8.000000
  0.285714  0.000000  0.272727      8.000000
  0.428571  0.000000  0.272727      8.000000
  0.142857  0.142857  0.272727      8.000000
  0.285714  0.142857  0.272727     16.000000
  0.428571  0.142857  0.272727     16.000000
  0.285714  0.285714  0.272727      8.000000
  0.428571  0.285714  0.272727     16.000000
  0.428571  0.428571  0.272727      8.000000
  0.000000  0.000000  0.363636      2.000000
  0.142857  0.000000  0.363636      8.000000
  0.285714  0.000000  0.363636      8.000000
  0.428571  0.000000  0.363636      8.000000
  0.142857  0.142857  0.363636      8.000000
  0.285714  0.142857  0.363636     16.000000
  0.428571  0.142857  0.363636     16.000000
  0.285714  0.285714  0.363636      8.000000
  0.428571  0.285714  0.363636     16.000000
  0.428571  0.428571  0.363636      8.000000
  0.000000  0.000000  0.454545      2.000000
  0.142857  0.000000  0.454545      8.000000
  0.285714  0.000000  0.454545      8.000000
  0.428571  0.000000  0.454545      8.000000
  0.142857  0.142857  0.454545      8.000000
  0.285714  0.142857  0.454545     16.000000
  0.428571  0.142857  0.454545     16.000000
  0.285714  0.285714  0.454545      8.000000
  0.428571  0.285714  0.454545     16.000000
  0.428571  0.428571  0.454545      8.000000

 Following cartesian coordinates:
            Coordinates               Weight
  0.000000  0.000000  0.000000      1.000000
  0.030726  0.000000  0.000000      4.000000
  0.061452  0.000000  0.000000      4.000000
  0.092179  0.000000  0.000000      4.000000
  0.030726  0.030726  0.000000      4.000000
  0.061452  0.030726  0.000000      8.000000
  0.092179  0.030726  0.000000      8.000000
  0.061452  0.061452  0.000000      4.000000
  0.092179  0.061452  0.000000      8.000000
  0.092179  0.092179  0.000000      4.000000
  0.000000  0.000000  0.030631      2.000000
  0.030726  0.000000  0.030631      8.000000
  0.061452  0.000000  0.030631      8.000000
  0.092179  0.000000  0.030631      8.000000
  0.030726  0.030726  0.030631      8.000000
  0.061452  0.030726  0.030631     16.000000
  0.092179  0.030726  0.030631     16.000000
  0.061452  0.061452  0.030631      8.000000
  0.092179  0.061452  0.030631     16.000000
  0.092179  0.092179  0.030631      8.000000
  0.000000  0.000000  0.061261      2.000000
  0.030726  0.000000  0.061261      8.000000
  0.061452  0.000000  0.061261      8.000000
  0.092179  0.000000  0.061261      8.000000
  0.030726  0.030726  0.061261      8.000000
  0.061452  0.030726  0.061261     16.000000
  0.092179  0.030726  0.061261     16.000000
  0.061452  0.061452  0.061261      8.000000
  0.092179  0.061452  0.061261     16.000000
  0.092179  0.092179  0.061261      8.000000
  0.000000  0.000000  0.091892      2.000000
  0.030726  0.000000  0.091892      8.000000
  0.061452  0.000000  0.091892      8.000000
  0.092179  0.000000  0.091892      8.000000
  0.030726  0.030726  0.091892      8.000000
  0.061452  0.030726  0.091892     16.000000
  0.092179  0.030726  0.091892     16.000000
  0.061452  0.061452  0.091892      8.000000
  0.092179  0.061452  0.091892     16.000000
  0.092179  0.092179  0.091892      8.000000
  0.000000  0.000000  0.122522      2.000000
  0.030726  0.000000  0.122522      8.000000
  0.061452  0.000000  0.122522      8.000000
  0.092179  0.000000  0.122522      8.000000
  0.030726  0.030726  0.122522      8.000000
  0.061452  0.030726  0.122522     16.000000
[...]
  n-local  -148.17761  -146.88613  -151.95155    -0.73318     0.19293     0.14576
  augment   147.01672   147.01672   147.45223     0.00000    -0.00000     0.00000
  Kinetic   875.75755   872.67641   867.91362    -0.40458    -0.83831    -1.59102
  Fock        0.00000     0.00000     0.00000     0.00000     0.00000     0.00000
  Total      -4.89611    -4.89611    -5.74395     0.00000     0.00000     0.00000
  in kB    -122.27147  -122.27147  -143.44465     0.00000     0.00000     0.00000

 VOLUME and BASIS-vectors are now :
  energy-cutoff  :      700.00
  volume of cell :       64.16
      direct lattice vectors                 reciprocal lattice vectors
     4.649353912  0.000000000  0.000000000     0.215083648  0.000000000  0.000000000
     0.000000000  4.649353912  0.000000000     0.000000000  0.215083648  0.000000000
     0.000000000  0.000000000  2.967915303     0.000000000  0.000000000  0.336936839

[...]

 FORCES acting on ions
    electron-ion (+dipol)            ewald-force                    non-local-force                 convergence-correction
   0.125E-11 -.674E-13 -.224E-11   0.853E-13 0.284E-13 0.192E-13   0.940E-24 0.778E-23 0.113E-22   -.143E-12 -.579E-13 -.789E-13
   -.578E-14 0.154E-14 -.111E-12   0.284E-12 0.199E-12 0.187E-13   -.146E-24 0.920E-23 0.177E-22   -.109E-12 -.504E-13 -.218E-13
   -.467E+02 0.467E+02 0.232E-11   0.498E+02 -.498E+02 -.525E-14   -.325E+01 0.325E+01 0.367E-17   0.685E-03 -.685E-03 -.253E-13
   0.467E+02 -.467E+02 0.106E-10   -.498E+02 0.498E+02 -.533E-14   0.325E+01 -.325E+01 0.188E-17   -.685E-03 0.685E-03 0.207E-13
   0.467E+02 0.467E+02 -.538E-06   -.498E+02 -.498E+02 -.894E-14   0.325E+01 0.325E+01 0.277E-17   -.685E-03 -.685E-03 0.405E-14
   -.467E+02 -.467E+02 0.538E-06   0.498E+02 0.498E+02 -.891E-14   -.325E+01 -.325E+01 0.948E-18   0.685E-03 0.685E-03 0.287E-13
   -.237E-11 0.400E-11 0.194E-11   0.000E+00 -.142E-13 0.946E-14   -.444E-15 0.000E+00 0.927E-17   -.245E-12 -.149E-12 -.725E-13

 POSITION                                       TOTAL-FORCE (eV/Angst)
      2.32468      2.32468      1.48396         0.000000      0.000000      0.000000
      0.00000      0.00000      0.00000         0.000000      0.000000      0.000000
      0.90691      3.74244      1.48396        -0.103929      0.103929     -0.000000
      3.74244      0.90691      1.48396         0.103929     -0.103929     -0.000000
      1.41777      1.41777      0.00000         0.103929      0.103929     -0.000000
      3.23159      3.23159      0.00000        -0.103929     -0.103929     -0.000000
    total drift:                               -0.000000      0.000000      0.000000

  FREE ENERGIE OF THE ION-ELECTRON SYSTEM (eV)
  free  energy   TOTEN  =       -58.66372590 eV

  energy  without entropy=      -58.66372590  energy(sigma->0) =      -58.66372590

[...]

 d Force =-0.9544335E-02[-0.231E-01, 0.400E-02]  d Energy =-0.1655878E+00 0.156E+00
 d Force =-0.2101445E+01[-0.228E+01,-0.192E+01]  d Ewald  = 0.1495758E+03-0.152E+03

 Steepest descent step on ions:
 trial-energy change:    0.165588  1 .order    0.204020   -0.654936    1.062975
  (g-gl).g = 0.655E+00      g.g   = 0.655E+00  gl.gl    = 0.000E+00
 g(Force)  = 0.417E-02   g(Stress)= 0.651E+00 ortho     = 0.000E+00
 gamma     =   0.00000
 trial     =   1.00000
 opt step  =   0.41380  (harmonic =   0.38124) maximal distance =0.00207471
 next E    =   -58.801955   (d E  =  -0.13823)

[...]

 d Force = 0.8886652E-02[ 0.334E-02, 0.144E-01]  d Energy = 0.3077030E+00-0.299E+00
 d Force = 0.1357189E+01[ 0.129E+01, 0.143E+01]  d Ewald  =-0.8910298E+02 0.905E+02

[...]

 d Force =-0.4684459E-04[-0.478E-04,-0.459E-04]  d Energy = 0.5903203E-04-0.106E-03
 d Force =-0.1770069E-01[-0.177E-01,-0.177E-01]  d Ewald  = 0.1225153E+01-0.124E+01

[...]

 d Force = 0.3924440E-02[ 0.845E-03, 0.700E-02]  d Energy = 0.6494630E-02-0.257E-02
 d Force = 0.2475345E+01[ 0.235E+01, 0.260E+01]  d Ewald  = 0.9628281E+01-0.715E+01

 Conjugate gradient step on ions:
 trial-energy change:   -0.006495  1 .order   -0.006502   -0.011253   -0.001752
  (g-gl).g = 0.109E-01      g.g   = 0.127E-01  gl.gl    = 0.655E+00
 g(Force)  = 0.804E-02   g(Stress)= 0.465E-02 ortho     = 0.177E-02
 gamma     =   0.01669
 trial     =   0.88441
 opt step  =   1.04747  (harmonic =   1.04747) maximal distance =0.00720736
 next E    =   -58.812564   (d E  =  -0.00666)

[...]

 d Force = 0.5024446E-04[-0.557E-04, 0.156E-03]  d Energy = 0.1597623E-03-0.110E-03
 d Force = 0.4308318E+00[ 0.427E+00, 0.435E+00]  d Ewald  = 0.1740218E+01-0.131E+01

[...]

 d Force = 0.7514900E-06[ 0.739E-06, 0.764E-06]  d Energy = 0.9786709E-07 0.654E-06
 d Force =-0.5851414E-02[-0.585E-02,-0.585E-02]  d Ewald  =-0.2377557E-01 0.179E-01

[...]

 eigenvalue-minimisations  : 29920
 total energy-change (2. order) :-0.1088086E-03  (-0.7660462E-03)
 number of electron      48.0000005 magnetization       0.0000000
 augmentation part        9.5357412 magnetization       0.0000000

[...]

 Broyden mixing:
  rms(total) = 0.10461E-02    rms(broyden)= 0.10460E-02
  rms(prec ) = 0.18093E-02
  weight for this iteration     100.00

 eigenvalues of (default mixing * dielectric matrix)
  average eigenvalue GAMMA=   1.2759
  0.8411  1.7107

[...]

--------------------------------------- Iteration      8(   4)  ---------------------------------------

 eigenvalue-minimisations  : 18898
 total energy-change (2. order) : 0.6816299E-07  (-0.3725666E-06)
 number of electron      48.0000005 magnetization       0.0000000
 augmentation part        9.5361507 magnetization      -0.0000001

 Free energy of the ion-electron system (eV)
  alpha Z        PSCENC =       201.68485557
  Ewald energy   TEWEN  =     -3632.88977671
  -Hartree energ DENC   =     -1213.66160360
  -exchange      EXHF   =         0.00000000
  -V(xc)+E(xc)   XCENC  =       240.21238946
  PAW double counting   =      5636.08219827    -5604.59229639
  entropy T*S    EENTRO =        -0.00000000
  eigenvalues    EBANDS =      -589.10169257
  atomic energy  EATOM  =      4903.45334458
  Solvation  Ediel_sol  =         0.00000000
  free energy    TOTEN  =       -58.81258140 eV

  energy without entropy =      -58.81258140  energy(sigma->0) =      -58.81258140

 average (electrostatic) potential at core
  the test charge radii are     1.0397  0.7215
  (the norm of the test charge is              1.0000)
       1 -75.9201       2 -75.9201       3 -70.2024       4 -70.2024       5 -70.2024
       6 -70.2024

 E-fermi :   5.2617     XC(G=0): -12.1522     alpha+bet :-14.1028

 Fermi energy:         5.2616991672

[...]

 k-point    60 :       0.4286    0.4286    0.4545
  band No.  band energies     occupation
      1     -51.1572      1.00000
      2     -51.1571      1.00000
      3     -28.2261      1.00000
      4     -28.2241      1.00000
      5     -27.8058      1.00000
      6     -27.8026      1.00000
      7     -27.7618      1.00000
      8     -27.7615      1.00000
      9     -11.8547      1.00000
     10     -11.7753      1.00000
     11     -11.4697      1.00000
     12     -11.3856      1.00000
     13      -0.2514      1.00000
     14      -0.0920      1.00000
     15       0.1908      1.00000
     16       0.3142      1.00000
     17       1.1503      1.00000
     18       1.3082      1.00000
     19       2.0929      1.00000
     20       2.1335      1.00000
     21       3.3957      1.00000
     22       3.4604      1.00000
     23       4.0940      1.00000
     24       4.1596      1.00000
     25       7.2843      0.00000
     26       7.5440      0.00000
     27       8.0751      0.00000
     28       8.1628      0.00000
     29       8.1809      0.00000
     30       8.3455      0.00000
     31      10.6627      0.00000
     32      11.0885      0.00000
     33      11.1885      0.00000
     34      11.6140      0.00000
     35      16.3347      0.00000
     36      16.4770      0.00000
     37      18.6734      0.00000
     38      19.2274      0.00000
     39      19.5861      0.00000
     40      20.0919      0.00000
     41      22.2447      0.00000
     42      22.2967      0.00000
     43      23.5629      0.00000
     44      23.8273      0.00000
     45      24.3616      0.00000
     46      24.7194      0.00000
     47      28.2683      0.00000
     48      28.7973      0.00000
     49      29.8598      0.00000
     50      29.9322      0.00000
     51      30.8997      0.00000
     52      31.4563      0.00000
     53      33.9458      0.00000
     54      33.9862      0.00000
     55      36.5810      0.00000
     56      36.9231      0.00000
     57      37.9158      0.00000
     58      38.2880      0.00000
     59      38.5943      0.00000
     60      39.0744      0.00000
[...]
     66      41.5164      0.00000
     67      43.0154      0.00000
     68      43.3498      0.00000
     69      43.9502      0.00000
     70      44.4693      0.00000
     71      44.7180      0.00000
     72      45.1172      0.00000
     73      45.4411      0.00000
     74      46.2489      0.00000
     75      47.6016      0.00000
     76      47.7736      0.00000
     77      49.6590      0.00000
     78      49.7608      0.00000
     79      51.5909      0.00000
     80      51.8235      0.00000
 Fermi energy:         5.2616991672

 spin component 2

[...]

 k-point    60 :       0.4286    0.4286    0.4545
  band No.  band energies     occupation
      1     -51.1572      1.00000
      2     -51.1571      1.00000
      3     -28.2261      1.00000
      4     -28.2241      1.00000
      5     -27.8058      1.00000
      6     -27.8026      1.00000
      7     -27.7618      1.00000
      8     -27.7615      1.00000
      9     -11.8547      1.00000
     10     -11.7753      1.00000
     11     -11.4697      1.00000
     12     -11.3856      1.00000
     13      -0.2514      1.00000
     14      -0.0920      1.00000
     15       0.1908      1.00000
     16       0.3142      1.00000
     17       1.1503      1.00000
     18       1.3082      1.00000
     19       2.0929      1.00000
     20       2.1335      1.00000
     21       3.3957      1.00000
     22       3.4604      1.00000
     23       4.0940      1.00000
     24       4.1596      1.00000
     25       7.2843      0.00000
     26       7.5440      0.00000
     27       8.0751      0.00000
     28       8.1628      0.00000
     29       8.1809      0.00000
     30       8.3455      0.00000
     31      10.6627      0.00000
     32      11.0885      0.00000
     33      11.1885      0.00000
     34      11.6140      0.00000
     35      16.3347      0.00000
     36      16.4770      0.00000
     37      18.6734      0.00000
     38      19.2274      0.00000
     39      19.5861      0.00000
     40      20.0919      0.00000
     41      22.2447      0.00000
     42      22.2967      0.00000
     43      23.5629      0.00000
     44      23.8273      0.00000
     45      24.3616      0.00000
     46      24.7194      0.00000
     47      28.2683      0.00000
     48      28.7973      0.00000
     49      29.8598      0.00000
     50      29.9322      0.00000
     51      30.8997      0.00000
     52      31.4563      0.00000
     53      33.9458      0.00000
     54      33.9862      0.00000
     55      36.5810      0.00000
     56      36.9231      0.00000
     57      37.9158      0.00000
     58      38.2880      0.00000
     59      38.5943      0.00000
     60      39.0744      0.00000
[...]
     66      41.5164      0.00000
     67      43.0154      0.00000
     68      43.3498      0.00000
     69      43.9502      0.00000
     70      44.4693      0.00000
     71      44.7180      0.00000
     72      45.1172      0.00000
     73      45.4411      0.00000
     74      46.2489      0.00000
     75      47.6016      0.00000
     76      47.7736      0.00000
     77      49.6590      0.00000
     78      49.7608      0.00000
     79      51.5909      0.00000
     80      51.8235      0.00000

[...]

 soft charge-density along one line, spin component           2
         0         1         2         3         4         5         6         7         8         9
 total charge-density along one line

------------------------ aborting loop because EDIFF is reached ----------------------------------------

[...]

  FORCE on cell =-STRESS in cart. coord.  units (eV):
  Direction    XX          YY          ZZ          XY          YZ          ZX
  Alpha Z   201.68486   201.68486   201.68486
  Ewald   -1399.09087 -1399.09087  -834.71079    -0.00000    -0.00000    -0.00000
  Hartree   297.72101   297.72101   618.17936    -0.00000    -0.00000    -0.00000
  E(xc)    -240.48794  -240.48794  -240.48829    -0.00000     0.00000    -0.00000
  Local     262.45353   262.45353  -611.93010    -0.00000     0.00000     0.00000
  n-local  -151.44271  -149.86444  -154.62688    -0.76185     0.21663     0.13299
  augment   145.07282   145.07282   145.27683    -0.00000    -0.00000    -0.00000
  Kinetic   885.13456   881.42540   876.62655    -0.43313    -0.95423    -1.72396
  Fock        0.00000     0.00000     0.00000     0.00000     0.00000     0.00000
  Total      -0.02018    -0.02018     0.01154     0.00000     0.00000     0.00000
  in kB      -0.53385    -0.53385     0.30512     0.00000     0.00000     0.00000

 VOLUME and BASIS-vectors are now :
  energy-cutoff  :      700.00
  volume of cell :       60.57
      direct lattice vectors                 reciprocal lattice vectors
     4.553195827  0.000000000  0.000000000     0.219625959 -0.000000000  0.000000000
     0.000000000  4.553195827  0.000000000    -0.000000000  0.219625959  0.000000000
     0.000000000  0.000000000  2.921711083     0.000000000  0.000000000  0.342265190

  length of vectors
     4.553195827  4.553195827  2.921711083     0.219625959  0.219625959  0.342265190

 FORCES acting on ions
    electron-ion (+dipol)            ewald-force                    non-local-force                 convergence-correction
   0.129E-11 -.151E-12 -.224E-11   -.284E-13 0.284E-13 0.302E-13   0.302E-23 0.318E-23 0.684E-25   0.862E-13 0.372E-12 -.802E-12
   0.779E-13 0.494E-13 -.116E-12   -.142E-12 -.568E-13 0.305E-13   -.158E-23 0.220E-23 0.773E-25   -.121E-11 -.265E-12 0.678E-12
   -.444E+02 0.444E+02 0.804E-12   0.475E+02 -.475E+02 -.114E-13   -.309E+01 0.309E+01 0.489E-18   0.846E-03 -.846E-03 -.376E-12
   0.444E+02 -.444E+02 -.241E-12   -.475E+02 0.475E+02 -.112E-13   0.309E+01 -.309E+01 -.815E-18   -.846E-03 0.846E-03 -.867E-12
   0.444E+02 0.444E+02 -.843E-06   -.475E+02 -.475E+02 -.141E-13   0.309E+01 0.309E+01 0.585E-18   -.846E-03 -.846E-03 0.317E-12
   -.444E+02 -.444E+02 0.843E-06   0.475E+02 0.475E+02 -.137E-13   -.309E+01 -.309E+01 -.464E-18   0.846E-03 0.846E-03 0.127E-11
   0.565E-11 -.108E-10 -.290E-11   0.000E+00 -.711E-14 0.102E-13   -.444E-15 0.000E+00 -.204E-18   -.124E-11 0.978E-12 0.215E-12

 POSITION                                       TOTAL-FORCE (eV/Angst)
      2.27660      2.27660      1.46086         0.000000      0.000000      0.000000
      0.00000     -0.00000     -0.00000         0.000000      0.000000      0.000000
      0.89311      3.66009      1.46086        -0.001724      0.001724      0.000000
      3.66009      0.89311      1.46086         0.001724     -0.001724     -0.000000
      1.38349      1.38349     -0.00000         0.001724      0.001724      0.000000
      3.16971      3.16971      0.00000        -0.001724     -0.001724     -0.000000
    total drift:                                0.000000     -0.000000     -0.000000

  FREE ENERGIE OF THE ION-ELECTRON SYSTEM (eV)
  free  energy   TOTEN  =       -58.81258140 eV

  energy  without entropy=      -58.81258140  energy(sigma->0) =      -58.81258140

 d Force = 0.7905643E-05[ 0.352E-05, 0.123E-04]  d Energy = 0.2674294E-04-0.188E-04
 d Force =-0.9722746E-01[-0.972E-01,-0.973E-01]  d Ewald  =-0.1905946E+00 0.934E-01

 Conjugate gradient step on ions:
 trial-energy change:   -0.000027  1 .order   -0.000031   -0.000048   -0.000014
  (g-gl).g = 0.202E-04      g.g   = 0.528E-04  gl.gl    = 0.127E-01
 g(Force)  = 0.139E-04   g(Stress)= 0.388E-04 ortho     = 0.476E-05
 gamma     =   0.00159
 trial     =   0.91657
 opt step  =   1.28307  (harmonic =   1.28307) maximal distance =0.00035786
 next E    =   -58.812589   (d E  =  -0.00003)

 reached required accuracy - stopping structural energy minimisation

 total charge

[...]

 magnetization (x)

# of ion       s       p       d       tot
    1        0.000   0.000  -0.000  -0.000
    2        0.000   0.000  -0.000  -0.000
    3       -0.000   0.000   0.000  -0.000
    4       -0.000   0.000   0.000  -0.000
    5       -0.000   0.000   0.000  -0.000
    6       -0.000   0.000   0.000  -0.000
tot          0.000   0.000  -0.000  -0.000