 vasp.6.2.0 18Jan21 (build Mar 03 2021 13:27:41) complex

 executed on             LinuxIFC date 2021.06.30  08:33:29

 INCAR:
   SYSTEM = TiO2-rutile
   ISMEAR = 0
   SIGMA = 0.05
   EDIFF = 1E-5
   ALGO = Fast
   ISTART = 1
   GGA = PS
   ISYM = 0
   IBRION = -1
   NSW = 0
   EDIFFG = -0.01
   ENCUT = 500
   PREC = Accurate
   LASPH = .TRUE.
   LREAL = Auto
   ISPIN = 1
   NELM = 500
   NELMIN = 4
   NCORE = 20
   LWAVE = .FALSE.
   LCHARG = .FALSE.
   LORBIT = 11

 POTCAR:    PAW_PBE Ti_sv 26Sep2005
 POTCAR:    PAW_PBE O 08Apr2002
|           W    W    AA    RRRRR   N    N  II  N    N   GGGG   !!!           |
|           W    W   A  A   R    R  NN   N  II  NN   N  G    G  !!!           |
|           W    W  A    A  R    R  N N  N  II  N N  N  G       !!!           |
|           W WW W  AAAAAA  RRRRR   N  N N  II  N  N N  G  GGG   !            |
|           WW  WW  A    A  R   R   N   NN  II  N   NN  G    G                |
|           W    W  A    A  R    R  N    N  II  N    N   GGGG   !!!           |
|     For optimal performance we recommend to set                             |
|       NCORE = 2 up to number-of-cores-per-socket                            |
|     This setting can greatly improve the performance of VASP for DFT.       |
|     The default, NCORE=1 might be grossly inefficient on modern             |
|     multi-core architectures or massively parallel machines. Do your        |
|     Unfortunately you need to use the default for GW and RPA                |
|     calculations (for HF NCORE is supported but not extensively tested      |
|     yet).                                                                   |

   TITEL  = PAW_PBE Ti_sv 26Sep2005
   POMASS =   47.880; ZVAL   =   12.000    mass and valenz
   ENMAX  =  274.610; ENMIN  =  205.957 eV

   TITEL  = PAW_PBE O 08Apr2002
   POMASS =   16.000; ZVAL   =    6.000    mass and valenz
   ENMAX  =  400.000; ENMIN  =  300.000 eV

 Optimization of the real space projectors (new method)

 maximal supplied QI-value         = 16.25
 optimisation between [QCUT,QGAM] = [ 11.38, 22.75] = [ 36.24,144.96] Ry
 Optimized for a Real-space Cutoff    1.27 Angstroem

   l    n(q)    QCUT    max X(q) W(low)/X(q) W(high)/X(q)  e(spline)
   0      9    11.376    12.277    0.53E-04    0.25E-04    0.25E-07
   0      9    11.376    11.419    0.89E-04    0.67E-05    0.35E-07
   1      8    11.376     4.010    0.13E-03    0.11E-03    0.29E-07
   1      8    11.376     6.182    0.94E-04    0.19E-03    0.11E-06
   2      8    11.376    47.177    0.13E-03    0.88E-03    0.24E-06
   2      8    11.376    42.437    0.13E-03    0.86E-03    0.23E-06
 Optimization of the real space projectors (new method)

 maximal supplied QI-value         = 24.76
 optimisation between [QCUT,QGAM] = [ 11.39, 22.77] = [ 36.31,145.25] Ry
 Optimized for a Real-space Cutoff    1.10 Angstroem

   l    n(q)    QCUT    max X(q) W(low)/X(q) W(high)/X(q)  e(spline)
   0      7    11.387    20.381    0.22E-03    0.48E-03    0.18E-06
   0      7    11.387    15.268    0.22E-03    0.52E-03    0.19E-06
   1      7    11.387     5.964    0.22E-03    0.73E-03    0.24E-06
   1      7    11.387     5.382    0.19E-03    0.60E-03    0.21E-06
|               ----> ADVICE to this user running VASP <----                  |
|     You enforced a specific xc type in the INCAR file but a different       |
|     type was found in the POTCAR file.                                      |
|     I HOPE YOU KNOW WHAT YOU ARE DOING!                                     |

  PAW_PBE Ti_sv 26Sep2005               :
  PAW_PBE O 08Apr2002                   :

 POSCAR: Ti  O
  positions in direct lattice
 exchange correlation table for  LEXCH =       14
   RHO(1)=    0.500       N(1)  =     2000
   RHO(2)=  100.500       N(2)  =     4000

 ion  position               nearest neighbor table
   1  0.500  0.125  0.287-  83 1.94 103 1.94  84 1.94 104 1.94  81 1.98  82 1.98
   2  0.250  0.000  0.287-  81 1.94 140 1.94 161 1.94 221 1.94  87 1.98
   3  0.250  0.125  0.394-  87 1.94 107 1.94  88 1.94 108 1.94  86 1.98 164 1.98
   4  0.500  0.000  0.394-  85 1.94  86 1.94 144 1.94 145 1.94  84 1.98  91 1.98
   5  0.500  0.125  0.500-  91 1.94  92 1.94 111 1.94 112 1.94  89 1.98  90 1.98
   6  0.250  0.000  0.500-  89 1.94 148 1.94 169 1.94 229 1.94  88 1.98  95 1.99
   7  0.250  0.125  0.604- 115 1.89  95 1.89 172 1.95  94 1.95  96 2.00 116 2.00
   8  0.500  0.000  0.610-  99 1.86  94 1.97 153 1.97  93 1.97 152 1.97  92 2.09
   9  0.500  0.125  0.719- 100 1.82 120 1.82  98 2.03  97 2.03 119 2.08  99 2.09
  10  0.750  0.000  0.708- 175 1.81 176 1.94  98 1.94 236 1.94 157 1.94
  11  0.500  0.375  0.287- 103 1.94 123 1.94 104 1.94 124 1.94 101 1.98 102 1.98
  12  0.250  0.250  0.287-  81 1.94 101 1.94 161 1.94 181 1.94 107 1.98
  13  0.250  0.375  0.394- 107 1.94 127 1.94 108 1.94 128 1.94 106 1.98 184 1.98
  14  0.500  0.250  0.394-  85 1.94  86 1.94 105 1.94 106 1.94 104 1.98 111 1.98
  15  0.500  0.375  0.500- 111 1.94 112 1.94 131 1.94 132 1.94 109 1.98 110 1.98
  16  0.250  0.250  0.500-  89 1.94 109 1.94 169 1.94 189 1.94 108 1.98 115 1.99
  17  0.250  0.375  0.604- 115 1.89 135 1.89 114 1.95 192 1.95 136 2.00 116 2.00
  18  0.500  0.250  0.610- 119 1.86 113 1.97  93 1.97 114 1.97  94 1.97 112 2.10
  19  0.500  0.375  0.719- 120 1.82 118 2.03 117 2.03 119 2.08 139 2.09
  20  0.750  0.250  0.708- 195 1.81  98 1.94 176 1.94 118 1.94 196 1.94
  21  0.500  0.625  0.287- 123 1.94 142 1.94 124 1.94 143 1.94 121 1.98 122 1.98
  22  0.250  0.500  0.287- 101 1.94 121 1.94 181 1.94 201 1.94 127 1.98
  23  0.250  0.625  0.394- 127 1.94 146 1.94 128 1.94 147 1.94 126 1.98 204 1.98
  24  0.500  0.500  0.394- 105 1.94 106 1.94 125 1.94 126 1.94 124 1.98 131 1.98
  25  0.500  0.625  0.500- 131 1.94 132 1.94 150 1.94 151 1.94 129 1.98 130 1.98
  26  0.250  0.500  0.500- 109 1.94 129 1.94 189 1.94 209 1.94 128 1.98 135 1.99
  27  0.250  0.625  0.604- 154 1.89 135 1.89 134 1.95 212 1.95 136 2.00 155 2.00
  28  0.500  0.500  0.610- 139 1.86 114 1.97 134 1.97 113 1.97 133 1.97 132 2.09
  29  0.500  0.625  0.719- 159 1.82 138 2.03 137 2.03 158 2.08 139 2.09
  30  0.750  0.500  0.708- 215 1.81 138 1.94 216 1.94 118 1.94 196 1.94
  31  0.500  0.875  0.287-  83 1.94 142 1.94  84 1.94 143 1.94 140 1.98 141 1.98
  32  0.250  0.750  0.287- 121 1.94 140 1.94 201 1.94 221 1.94 146 1.98
  33  0.250  0.875  0.394-  87 1.94 146 1.94  88 1.94 147 1.94 145 1.98 224 1.98
  34  0.500  0.750  0.394- 125 1.94 126 1.94 144 1.94 145 1.94 143 1.98 150 1.98
  35  0.500  0.875  0.500-  91 1.94  92 1.94 150 1.94 151 1.94 148 1.98 149 1.98
  36  0.250  0.750  0.500- 129 1.94 148 1.94 209 1.94 229 1.94 147 1.98 154 1.99
  37  0.250  0.875  0.604- 154 1.89  95 1.89 232 1.95 153 1.95  96 2.00 155 2.00
  38  0.500  0.750  0.610- 158 1.86 133 1.97 152 1.97 134 1.97 153 1.97 151 2.10
  39  0.500  0.875  0.719- 100 1.82 159 1.82 157 2.03 156 2.03 158 2.08  99 2.09
  40  0.750  0.750  0.708- 235 1.81 138 1.94 216 1.94 157 1.94 236 1.94
  41  0.000  0.125  0.287- 162 1.94 182 1.94 163 1.94 183 1.94 160 1.98 161 1.98
  42  0.750  0.000  0.287-  82 1.94 141 1.94 160 1.94 220 1.94 166 1.98
  43  0.750  0.125  0.394- 166 1.94 186 1.94 167 1.94 187 1.94  85 1.98 165 1.98
  44  0.000  0.000  0.394- 164 1.94 165 1.94 224 1.94 225 1.94 163 1.98 170 1.98
  45  0.000  0.125  0.500- 170 1.94 171 1.94 190 1.94 191 1.94 168 1.98 169 1.98
  46  0.750  0.000  0.500-  90 1.94 149 1.94 168 1.94 228 1.94 167 1.98 174 1.99
  47  0.750  0.125  0.604- 194 1.89 174 1.89  93 1.95 173 1.95 175 2.00 195 2.00
  48  1.000  0.000  0.610- 178 1.86 173 1.97 233 1.97 172 1.97 232 1.97 171 2.09
  49  1.000  0.125  0.719- 179 1.82 199 1.82 176 2.03 177 2.03 198 2.08 178 2.09
  50  0.250  1.000  0.708-  96 1.81 156 1.94 237 1.94  97 1.94 177 1.94
  51  0.000  0.375  0.287- 182 1.94 202 1.94 183 1.94 203 1.94 180 1.98 181 1.98
  52  0.750  0.250  0.287-  82 1.94 102 1.94 160 1.94 180 1.94 186 1.98
  53  0.750  0.375  0.394- 186 1.94 206 1.94 187 1.94 207 1.94 105 1.98 185 1.98
  54  0.000  0.250  0.394- 164 1.94 165 1.94 184 1.94 185 1.94 183 1.98 190 1.98
  55  0.000  0.375  0.500- 190 1.94 191 1.94 210 1.94 211 1.94 188 1.98 189 1.98
  56  0.750  0.250  0.500-  90 1.94 110 1.94 168 1.94 188 1.94 187 1.98 194 1.99
  57  0.750  0.375  0.604- 194 1.89 214 1.89 193 1.95 113 1.95 215 2.00 195 2.00
  58  1.000  0.250  0.610- 198 1.86 193 1.97 173 1.97 192 1.97 172 1.97 191 2.10
  59  1.000  0.375  0.719- 219 1.82 199 1.82 196 2.03 197 2.03 198 2.08 218 2.09
  60  0.250  0.250  0.708- 116 1.81 177 1.94  97 1.94 117 1.94 197 1.94
[...]
 225  0.902  0.875  0.394-  44 1.94  74 1.94  73 1.98
 226  0.750  0.750  0.352-  63 1.94  73 1.94  72 1.98
 227  0.750  0.750  0.435-  63 1.94  73 1.94  76 1.98
 228  0.848  0.875  0.500-  46 1.94  76 1.94  75 1.98
 229  0.152  0.875  0.500-   6 1.94  36 1.94  75 1.98
 230  0.000  0.750  0.458-  65 1.94  75 1.94  74 1.98
 231  0.000  0.750  0.542-  65 1.94  75 1.94  78 2.10
 232  0.100  0.875  0.607-  37 1.95  78 1.97  48 1.97
 233  0.900  0.875  0.607-  77 1.95  78 1.97  48 1.97
 234  0.750  0.750  0.565-  77 1.89  67 1.89  76 1.99
 235  0.750  0.750  0.649-  40 1.81  77 2.00  67 2.00
 236  0.844  0.875  0.718-  40 1.94  10 1.94  79 2.03
 237  0.156  0.875  0.718-  80 1.94  50 1.94  79 2.03
 238  0.000  0.750  0.671-  78 1.86  69 2.08  79 2.08
 239  1.000  0.750  0.755-  79 1.82  69 1.82

IMPORTANT INFORMATION: All symmetrisations will be switched off!
NOSYMM: (Re-)initialisation of all symmetry stuff for point group C_1.

                                     Primitive cell

  volume of cell :    4668.4649

  direct lattice vectors                    reciprocal lattice vectors
    12.993043738  0.000000000  0.000000000     0.076964260  0.000000000  0.000000000
     0.000000000 11.766713800  0.000000000     0.000000000  0.084985495  0.000000000
     0.000000000  0.000000000 30.535709218     0.000000000  0.000000000  0.032748543

  length of vectors
    12.993043738 11.766713800 30.535709218     0.076964260  0.084985495  0.032748543

  position of ions in fractional coordinates (direct lattice)
     0.500000000  0.125000000  0.287248371
     0.250000000  0.000000000  0.287248371
     0.250000000  0.125000000  0.393624186
     0.500000000  0.000000000  0.393624186
     0.500000000  0.125000000  0.500000000
     0.250000000  0.000000000  0.500000000
     0.249997327  0.124997159  0.604108210
     0.499993965  0.000000681  0.610149822
     0.500000591  0.125006938  0.719490675
     0.750000556  0.000001464  0.707770640
     0.500000000  0.375000000  0.287248371
     0.250000000  0.250000000  0.287248371
     0.250000000  0.375000000  0.393624186
     0.500000000  0.250000000  0.393624186
     0.500000000  0.375000000  0.500000000
     0.250000000  0.250000000  0.500000000
     0.250000292  0.375002633  0.604108097
     0.500002188  0.250000206  0.610337163
     0.500000051  0.374993470  0.719490910
     0.749999922  0.249998644  0.707850375
     0.500000000  0.625000000  0.287248371
     0.250000000  0.500000000  0.287248371
     0.250000000  0.625000000  0.393624186
     0.500000000  0.500000000  0.393624186
     0.500000000  0.625000000  0.500000000
[...]
   -.182E-03 -.343E-03 0.252E+04   0.107E-03 0.330E-03 -.252E+04   -.131E-04 -.839E-05 0.394E+00   0.449E-04 -.577E-05 0.113E-02
   -.243E-02 0.120E+01 -.490E+02   0.235E-02 -.116E+01 0.497E+02   0.209E-04 0.445E-02 -.185E+00   0.125E-04 -.163E-03 0.271E-02
   -.243E+01 -.197E-03 -.284E+02   0.242E+01 0.261E-03 0.269E+02   0.622E-02 -.115E-03 0.602E+00   0.424E-03 0.560E-05 0.185E-02
   -.121E+02 0.522E+01 -.254E+04   0.120E+02 -.516E+01 0.254E+04   0.427E-01 -.228E-01 0.872E+00   0.169E-02 -.468E-03 0.416E-02
   -.648E-02 -.110E-01 -.265E+04   0.608E-02 0.113E-01 0.265E+04   0.380E-03 0.731E-04 -.744E+00   0.145E-03 -.398E-05 0.722E-02
   0.792E-02 0.253E+03 -.520E+04   -.926E-02 -.249E+03 0.520E+04   0.390E-03 -.272E+01 0.235E+01   0.931E-04 -.866E-02 0.400E-02
   0.686E+02 0.464E-01 -.506E+04   -.679E+02 -.488E-01 0.506E+04   -.333E+00 0.255E-03 0.299E+01   -.541E-02 0.155E-04 0.259E-02
   -.118E-03 0.418E-01 0.501E+04   0.346E-04 -.436E-01 -.502E+04   0.265E-04 0.272E-01 0.112E+01   0.729E-04 -.175E-04 -.567E-03
   -.120E+00 0.557E-01 0.523E+04   0.119E+00 -.562E-01 -.522E+04   0.310E-03 0.186E-03 -.576E+01   0.537E-04 -.215E-04 -.626E-03
   -.396E+00 0.170E+00 0.253E+04   0.391E+00 -.171E+00 -.253E+04   0.140E-02 -.133E-01 -.137E+00   0.877E-04 -.291E-04 0.944E-03
   -.392E-03 0.282E+00 0.252E+04   0.286E-03 -.285E+00 -.252E+04   -.146E-04 0.794E-03 0.430E+00   0.385E-04 -.486E-04 0.108E-02
   -.317E-02 0.139E+01 -.462E+02   0.310E-02 -.142E+01 0.469E+02   -.429E-05 -.115E-01 -.195E+00   0.910E-05 -.217E-03 0.234E-02
   -.200E+01 0.133E+01 -.271E+02   0.198E+01 -.133E+01 0.257E+02   0.485E-02 -.455E-03 0.597E+00   0.344E-03 -.147E-03 0.173E-02
   -.641E+01 0.457E+01 -.253E+04   0.629E+01 -.453E+01 0.253E+04   0.308E-01 -.430E-02 0.844E+00   0.976E-03 -.433E-03 0.338E-02
   -.737E-02 0.138E+02 -.263E+04   0.737E-02 -.139E+02 0.263E+04   -.303E-03 0.230E-01 -.742E+00   0.147E-03 -.161E-02 0.545E-02
   -.607E-02 0.319E+02 -.503E+04   0.660E-02 -.314E+02 0.503E+04   -.214E-03 -.107E+00 -.138E+01   0.423E-04 -.395E-02 0.122E-02
   0.294E+02 0.243E+02 -.504E+04   -.288E+02 -.239E+02 0.504E+04   -.173E+00 -.139E+00 0.286E+01   -.287E-02 -.203E-02 0.202E-02
   0.994E-04 -.348E-01 0.501E+04   -.231E-04 0.360E-01 -.502E+04   -.210E-04 -.271E-01 0.112E+01   -.961E-04 0.213E-04 -.597E-03
   0.115E+00 0.101E-04 0.523E+04   -.114E+00 -.321E-04 -.522E+04   -.313E-03 0.650E-04 -.570E+01   -.404E-04 0.178E-04 -.575E-03
   0.396E+00 -.169E+00 0.253E+04   -.391E+00 0.171E+00 -.253E+04   -.138E-02 0.133E-01 -.137E+00   -.962E-04 0.287E-04 0.745E-03
   0.265E-03 -.387E-04 0.252E+04   -.135E-03 0.304E-04 -.252E+04   -.175E-04 0.251E-04 0.386E+00   -.493E-04 -.476E-05 0.941E-03
   0.111E-02 -.765E+00 -.430E+02   -.106E-02 0.788E+00 0.438E+02   -.130E-04 0.807E-02 -.212E+00   -.450E-05 0.626E-04 0.183E-02
   0.159E+01 0.686E-03 -.257E+02   -.157E+01 -.761E-03 0.243E+02   -.539E-02 -.220E-04 0.595E+00   -.256E-03 0.744E-05 0.179E-02
   0.639E+01 -.458E+01 -.253E+04   -.627E+01 0.454E+01 0.253E+04   -.295E-01 0.425E-02 0.844E+00   -.978E-03 0.406E-03 0.327E-02
   0.164E-02 0.348E-02 -.261E+04   -.230E-02 -.380E-02 0.261E+04   0.480E-03 -.820E-04 -.101E+01   -.168E-03 0.126E-04 0.264E-02
   0.252E-02 -.431E+01 -.502E+04   -.226E-02 0.429E+01 0.502E+04   -.206E-04 0.129E-01 -.147E+01   -.197E-04 0.349E-03 0.156E-02
   -.118E+02 -.232E-02 -.503E+04   0.116E+02 0.248E-02 0.503E+04   0.473E-01 -.454E-04 0.280E+01   0.120E-02 0.581E-05 0.220E-02
   0.865E-04 -.371E-01 0.501E+04   -.147E-04 0.359E-01 -.502E+04   -.106E-04 0.271E-01 0.112E+01   -.854E-04 0.159E-04 -.631E-03
   0.120E+00 -.558E-01 0.523E+04   -.119E+00 0.562E-01 -.522E+04   -.392E-03 -.101E-04 -.576E+01   -.651E-04 -.665E-05 -.595E-03
   0.453E+00 -.167E+00 0.253E+04   -.449E+00 0.167E+00 -.253E+04   -.116E-02 -.137E-01 -.137E+00   -.116E-03 0.212E-04 0.878E-03
   0.170E-03 -.194E+00 0.252E+04   -.654E-04 0.195E+00 -.252E+04   0.123E-04 -.235E-03 0.425E+00   -.502E-04 0.160E-04 0.966E-03
   -.277E-03 -.499E+00 -.441E+02   0.333E-03 0.471E+00 0.448E+02   -.258E-04 -.690E-02 -.210E+00   0.392E-05 0.527E-04 0.191E-02
   0.200E+01 -.133E+01 -.271E+02   -.198E+01 0.133E+01 0.257E+02   -.491E-02 0.435E-03 0.597E+00   -.339E-03 0.149E-03 0.188E-02
   0.121E+02 -.519E+01 -.254E+04   -.120E+02 0.513E+01 0.254E+04   -.430E-01 0.228E-01 0.872E+00   -.168E-02 0.476E-03 0.410E-02
   0.329E-02 -.342E+01 -.261E+04   -.340E-02 0.339E+01 0.261E+04   0.203E-03 0.829E-02 -.957E+00   -.127E-03 0.231E-03 0.277E-02
   0.180E-02 -.598E+01 -.502E+04   -.164E-02 0.597E+01 0.502E+04   0.222E-04 -.131E-01 -.147E+01   -.297E-04 0.341E-03 0.157E-02
   -.294E+02 -.244E+02 -.504E+04   0.288E+02 0.240E+02 0.504E+04   0.173E+00 0.140E+00 0.286E+01   0.286E-02 0.198E-02 0.235E-02
[...]
   0.120E+00 0.621E-01 0.184E+04   -.118E+00 -.625E-01 -.184E+04   -.173E-02 0.778E-03 0.145E+01   -.330E-04 0.118E-04 0.179E-03
   0.389E+00 0.233E+00 0.700E+03   -.384E+00 -.233E+00 -.695E+03   -.578E-02 0.735E-03 -.449E+01   -.770E-04 -.792E-05 0.868E-03
   -.682E+02 0.410E+00 -.144E+02   0.730E+02 -.414E+00 0.140E+02   -.528E+01 0.197E-03 0.446E+00   0.151E-03 -.312E-04 0.895E-03
   0.682E+02 0.412E+00 -.144E+02   -.730E+02 -.415E+00 0.140E+02   0.528E+01 -.908E-04 0.446E+00   -.177E-03 -.366E-04 0.872E-03
   -.127E-03 0.250E+00 0.547E+03   0.159E-03 -.249E+00 -.551E+03   -.302E-04 -.118E-02 0.449E+01   -.575E-05 -.229E-04 0.789E-03
   -.145E-02 0.775E+00 -.609E+03   0.126E-02 -.769E+00 0.616E+03   0.235E-03 -.764E-02 -.699E+01   -.171E-04 -.563E-04 0.105E-02
   -.383E+02 0.125E+01 -.128E+04   0.414E+02 -.124E+01 0.128E+04   -.314E+01 -.160E-01 0.104E+01   -.252E-03 -.886E-04 0.138E-02
   0.383E+02 0.125E+01 -.128E+04   -.414E+02 -.124E+01 0.128E+04   0.314E+01 -.149E-01 0.104E+01   0.186E-03 -.954E-04 0.138E-02
   0.257E+01 0.188E+01 -.712E+03   -.253E+01 -.187E+01 0.706E+03   -.538E-01 -.340E-01 0.652E+01   -.426E-03 -.171E-03 0.118E-02
   0.805E+01 0.641E+01 -.180E+04   -.794E+01 -.635E+01 0.180E+04   -.146E+00 -.842E-01 0.306E+01   -.107E-02 -.585E-03 0.237E-02
   -.275E+02 0.389E+01 -.262E+04   0.337E+02 -.382E+01 0.262E+04   -.629E+01 -.128E+00 -.406E+01   -.478E-03 -.356E-03 0.776E-03
   0.276E+02 0.388E+01 -.262E+04   -.337E+02 -.381E+01 0.262E+04   0.629E+01 -.129E+00 -.406E+01   0.476E-03 -.320E-03 0.815E-03
   0.106E-02 0.286E+01 -.202E+04   -.114E-02 -.285E+01 0.203E+04   0.134E-03 -.197E-01 -.174E+01   -.266E-04 -.204E-03 0.134E-02
   -.197E-02 0.383E+01 -.304E+04   0.219E-02 -.382E+01 0.306E+04   -.232E-03 -.280E-01 -.209E+02   -.130E-04 -.226E-03 0.293E-03
   -.267E-02 -.458E-03 0.376E+02   -.101E-11 -.689E-12 -.291E-10   0.455E-02 0.359E-03 -.377E+02   0.640E-05 -.169E-04 0.269E+00

 POSITION                                       TOTAL-FORCE (eV/Angst)
      6.49652      1.47084      8.77133         0.000013     -0.025314     -3.507422
      3.24826      0.00000      8.77133        -0.000823     -0.000066      2.915913
      3.24826      1.47084     12.01959        -0.003640      0.014774      0.447240
      6.49652      0.00000     12.01959        -0.000068      0.000008     -0.812617
      6.49652      1.47084     15.26785        -0.000068      0.036608      0.503139
      3.24826      0.00000     15.26785        -0.012265     -0.000012     -0.854911
      3.24823      1.47081     18.44687        -0.089753     -0.034252     -0.144009
      6.49644      0.00001     18.63136         0.000741     -0.000378     -0.437653
      6.49653      1.47092     21.97016        -0.000225     -0.412474     -0.288801
      9.74479      0.00002     21.61228         0.118055     -0.001436     -0.182106
      6.49652      4.41252      8.77133        -0.000009      0.026506     -3.506432
      3.24826      2.94168      8.77133        -0.000905      0.000420      2.856089
      3.24826      4.41252     12.01959        -0.003274     -0.013484      0.447385
      6.49652      2.94168     12.01959        -0.000054      0.001803     -0.771076
      6.49652      4.41252     15.26785        -0.000067     -0.036254      0.499270
      3.24826      2.94168     15.26785        -0.012246      0.000576     -0.855959
      3.24826      4.41255     18.44687        -0.104664     -0.042134     -0.195899
      6.49655      2.94168     18.63708        -0.000539      0.006973     -0.764180
      6.49652      4.41244     21.97017        -0.000088     -1.430174     -1.732183
      9.74478      2.94166     21.61471         0.348582     -0.247851     -0.235954
      6.49652      7.35420      8.77133        -0.000030     -0.026482     -3.506418
      3.24826      5.88336      8.77133        -0.000660      0.000085      2.916045
      3.24826      7.35420     12.01959        -0.003205      0.013458      0.447298
      6.49652      5.88336     12.01959        -0.000052     -0.000026     -0.805839
      6.49652      7.35420     15.26785        -0.000048      0.036303      0.499274
      3.24826      5.88336     15.26785        -0.011784     -0.000044     -0.864634
      3.24826      7.35417     18.44687        -0.104710      0.042142     -0.195926
      6.49651      5.88335     18.63137         0.000115      0.000293     -0.723176
      6.49653      7.35428     21.97016        -0.000861      1.430208     -1.732132
      9.74479      5.88340     21.61230         0.375318     -0.002123     -0.376383
      6.49652     10.29587      8.77133         0.000008      0.025333     -3.507450
      3.24826      8.82504      8.77133        -0.000816     -0.000282      2.855877
      3.24826     10.29587     12.01959        -0.003628     -0.014778      0.447193
      6.49652      8.82504     12.01959        -0.000090     -0.001770     -0.771081
      6.49652     10.29587     15.26785        -0.000074     -0.036682      0.503222
      3.24826      8.82504     15.26785        -0.012337     -0.000706     -0.855957
      3.24823     10.29591     18.44687        -0.089652      0.034113     -0.144040
      6.49654      8.82503     18.63708        -0.000159     -0.006932     -0.764367
      6.49652     10.29579     21.97016         0.000349      0.412614     -0.289165
      9.74478      8.82496     21.61476         0.348612      0.252049     -0.238443
      0.00000      1.47084      8.77133        -0.000049     -0.025745     -3.505873
      9.74478      0.00000      8.77133         0.000772      0.000061      2.915743
      9.74478      1.47084     12.01959         0.003636      0.014942      0.447206
      0.00000      0.00000     12.01959         0.000056      0.000012     -0.798343
      0.00000      1.47084     15.26785         0.000026      0.031188      0.546678
      9.74478      0.00000     15.26785         0.012261     -0.000089     -0.855060
      9.74475      1.47080     18.44687         0.090788     -0.033648     -0.143649
     12.99304      0.00001     18.63136        -0.000356     -0.000388     -0.237587
     12.99304      1.47092     21.97017         0.000206     -0.006738     -0.123561
      3.24826     11.76671     21.61228        -0.118146      0.000113     -0.182175
      0.00000      4.41252      8.77133        -0.000032      0.025813     -3.505668
      9.74478      2.94168      8.77133         0.000734      0.000346      2.855970
      9.74478      4.41252     12.01959         0.003267     -0.013477      0.447375
      0.00000      2.94168     12.01959         0.000059      0.000496     -0.759815
      0.00000      4.41252     15.26785         0.000026     -0.034991      0.543666
      9.74478      2.94168     15.26785         0.012290      0.000679     -0.855963
      9.74479      4.41257     18.44686         0.104509     -0.043036     -0.195742
     12.99304      2.94168     18.63708        -0.000033     -0.022504     -0.231752
     12.99304      4.41244     21.97017         0.000152     -0.018626     -0.122503
      3.24826      2.94167     21.61470        -0.348538     -0.248013     -0.235285
[...]
     11.72171     10.29587     12.01959        -0.398956     -0.002969      0.063801
      9.74478      8.82504     10.74826        -0.000200      0.000390     -1.336847
      9.74478      8.82504     13.29093        -0.001171      0.000198     -0.035160
     11.01612     10.29587     15.26785        -0.442614     -0.003103      0.112456
      1.97693     10.29587     15.26785         0.442620     -0.003264      0.112581
      0.00000      8.82504     13.99652        -0.000012     -0.000769     -0.013065
      0.00000      8.82504     16.53919         0.000026     -0.002302      0.068819
      1.29990     10.29523     18.52964        -0.008642     -0.006111      0.038266
     11.69316     10.29524     18.52965         0.009032     -0.006014      0.038309
      9.74492      8.82504     17.25975        -0.016373     -0.021976      0.057127
      9.74478      8.82504     19.80701        -0.034922     -0.026539      0.297500
     10.96329     10.29594     21.93874        -0.103313     -0.061459      0.021822
      2.02976     10.29593     21.93875         0.103206     -0.061152      0.021704
      0.00000      8.82504     20.49442         0.000022     -0.008862      0.197431
     12.99304      8.82504     23.04353        -0.000040     -0.016916      0.030992
    total drift:                                0.001891     -0.000116      0.089299

  FREE ENERGIE OF THE ION-ELECTRON SYSTEM (eV)
  free  energy   TOTEN  =     -2212.74139934 eV

  energy  without entropy=    -2212.70552848  energy(sigma->0) =    -2212.72346391

 total charge

# of ion       s       p       d       tot
    1        2.224   6.309   1.780  10.314
    2        2.207   6.257   1.755  10.218
    3        2.227   6.309   1.737  10.273
    4        2.228   6.311   1.740  10.279
    5        2.226   6.311   1.743  10.280
    6        2.225   6.307   1.739  10.271
    7        2.231   6.316   1.769  10.316
    8        2.226   6.301   1.742  10.269
    9        2.226   6.297   1.802  10.325
   10        2.236   6.291   1.838  10.365
   11        2.224   6.309   1.780  10.314
   12        2.207   6.257   1.755  10.218
   13        2.227   6.309   1.737  10.273
   14        2.228   6.312   1.740  10.279
   15        2.226   6.311   1.743  10.281
   16        2.225   6.307   1.739  10.271
   17        2.231   6.316   1.769  10.316
   18        2.226   6.301   1.747  10.274
   19        2.196   6.224   1.787  10.207
   20        2.236   6.290   1.840  10.366
   21        2.224   6.309   1.780  10.314
   22        2.207   6.257   1.755  10.218
   23        2.227   6.309   1.737  10.273
   24        2.228   6.311   1.740  10.279
   25        2.226   6.311   1.743  10.281
   26        2.225   6.307   1.739  10.271
   27        2.231   6.316   1.770  10.316
   28        2.225   6.300   1.742  10.268
   29        2.196   6.224   1.787  10.207
   30        2.236   6.291   1.845  10.372
   31        2.224   6.309   1.780  10.314
   32        2.207   6.257   1.755  10.218
   33        2.227   6.309   1.737  10.273
   34        2.228   6.312   1.740  10.279
   35        2.226   6.311   1.743  10.280
   36        2.225   6.307   1.739  10.271
   37        2.231   6.316   1.769  10.316
   38        2.226   6.301   1.747  10.274
   39        2.226   6.297   1.802  10.325
   40        2.236   6.290   1.840  10.366
   41        2.224   6.309   1.780  10.314
   42        2.207   6.257   1.755  10.218
   43        2.227   6.309   1.737  10.273
   44        2.228   6.312   1.740  10.279
   45        2.226   6.311   1.743  10.280
   46        2.225   6.307   1.739  10.271
   47        2.231   6.316   1.769  10.316
   48        2.226   6.301   1.743  10.270
   49        2.225   6.297   1.809  10.332
   50        2.236   6.291   1.838  10.365
   51        2.224   6.309   1.780  10.314
   52        2.207   6.257   1.755  10.218
   53        2.227   6.309   1.737  10.273
   54        2.228   6.312   1.740  10.279
   55        2.226   6.311   1.743  10.280
   56        2.225   6.307   1.739  10.271
   57        2.231   6.316   1.770  10.316
   58        2.226   6.302   1.744  10.272
   59        2.226   6.297   1.810  10.333
   60        2.236   6.290   1.840  10.366
[...]
  225        1.569   3.486   0.000   5.055
  226        1.568   3.475   0.000   5.043
  227        1.569   3.482   0.000   5.052
  228        1.570   3.484   0.000   5.054
  229        1.570   3.484   0.000   5.054
  230        1.570   3.487   0.000   5.057
  231        1.568   3.462   0.000   5.031
  232        1.568   3.482   0.000   5.050
  233        1.568   3.482   0.000   5.050
  234        1.573   3.504   0.000   5.078
  235        1.571   3.501   0.000   5.072
  236        1.567   3.476   0.000   5.044
  237        1.567   3.476   0.000   5.044
  238        1.567   3.460   0.000   5.028
  239        1.588   3.432   0.000   5.020
tot        427.7401056.127 141.2011625.067