 vasp.6.2.0 18Jan21 (build Mar 03 2021 13:27:41) complex

 executed on             LinuxIFC date 2021.10.11  02:12:48

 INCAR:
   SYSTEM = MgO
   ISMEAR = 0
   SIGMA = 0.05
   EDIFF = 1E-5
   ALGO = Fast
   ISYM = 0
   GGA = PE
   IBRION = -1
   NSW = 0
   EDIFFG = -0.01
   ENCUT = 500
   PREC = Normal
   LASPH = .TRUE.
   LREAL = Auto
   ISPIN = 1
   NELM = 300
   NCORE = 20
   LWAVE = .FALSE.
   LCHARG = .FALSE.
   LORBIT = 11

 POTCAR:    PAW_PBE Mg_sv 12Apr2007
 POTCAR:    PAW_PBE O 08Apr2002
 POTCAR:    PAW_PBE Mg_sv 12Apr2007
   VRHFIN =Mg: p6s2

   TITEL  = PAW_PBE Mg_sv 12Apr2007
   POMASS =   24.305; ZVAL   =   10.000    mass and valenz
   ENMAX  =  495.223; ENMIN  =  371.417 eV

   TITEL  = PAW_PBE O 08Apr2002
   POMASS =   16.000; ZVAL   =    6.000    mass and valenz
   ENMAX  =  400.000; ENMIN  =  300.000 eV

 Optimization of the real space projectors (new method)

 maximal supplied QI-value         = 22.11
 optimisation between [QCUT,QGAM] = [ 11.28, 22.77] = [ 35.61,145.23] Ry
 Optimized for a Real-space Cutoff    1.16 Angstroem

   l    n(q)    QCUT    max X(q) W(low)/X(q) W(high)/X(q)  e(spline)
   0      8    11.276     8.730    0.54E-04    0.73E-04    0.16E-07
   0      8    11.276     8.910    0.73E-04    0.10E-03    0.30E-07
   1      7    11.276     2.513    0.11E-03    0.16E-04    0.10E-06
   1      7    11.276     3.341    0.27E-03    0.22E-03    0.27E-06
   2      7    11.276     3.683    0.35E-03    0.35E-03    0.85E-07
 Optimization of the real space projectors (new method)

 maximal supplied QI-value         = 24.76
 optimisation between [QCUT,QGAM] = [ 11.39, 22.77] = [ 36.31,145.25] Ry
 Optimized for a Real-space Cutoff    1.00 Angstroem

   l    n(q)    QCUT    max X(q) W(low)/X(q) W(high)/X(q)  e(spline)
   0      7    11.387    20.381    0.39E-03    0.13E-02    0.15E-06
   0      7    11.387    15.268    0.42E-03    0.14E-02    0.17E-06
   1      6    11.387     5.964    0.41E-03    0.11E-02    0.17E-06
   1      6    11.387     5.382    0.39E-03    0.87E-03    0.15E-06
  PAW_PBE Mg_sv 12Apr2007               :
  PAW_PBE O 08Apr2002                   :

 POSCAR: Mg  O
  positions in direct lattice
 exchange correlation table for  LEXCH =        8
   RHO(1)=    0.500       N(1)  =     2000
   RHO(2)=  100.500       N(2)  =     4000

 ion  position               nearest neighbor table
   1  0.167  0.000  0.320-  93 2.10  94 2.10 113 2.10  91 2.10 124 2.10
   2  0.000  0.167  0.320-  93 2.10  94 2.10 153 2.10  92 2.10 104 2.10
   3  0.167  0.167  0.410-  91 2.10  92 2.10  93 2.10  97 2.10 101 2.10 122 2.10
   4  0.000  0.000  0.410-  91 2.10  92 2.10 112 2.10 151 2.10  94 2.10  98 2.10
   5  0.167  0.000  0.500-  97 2.10  98 2.10 117 2.10  91 2.10 128 2.10  95 2.11
   6  0.000  0.167  0.500-  97 2.10  98 2.10 157 2.10  92 2.10 108 2.10  96 2.11
   7  0.167  0.167  0.590- 105 2.10 126 2.10  96 2.10  95 2.10  97 2.11  99 2.13
   8  0.333  1.000  0.590- 126 2.10 125 2.10  95 2.10 146 2.10 128 2.11 130 2.13
   9  0.167  0.333  0.679- 105 2.09 109 2.10 110 2.10 140 2.10  99 2.10
  10  1.000  0.167  0.679-  96 2.09  99 2.10 110 2.10 100 2.10 159 2.10
  11  0.167  0.333  0.320- 103 2.10 104 2.10 101 2.10  93 2.10 134 2.10
  12  0.000  0.500  0.320- 103 2.10 104 2.10 114 2.10 163 2.10 102 2.10
  13  0.167  0.500  0.410- 101 2.10 102 2.10 111 2.10 107 2.10 103 2.10 132 2.10
  14  0.000  0.333  0.410- 101 2.10 102 2.10 161 2.10 108 2.10 104 2.10  92 2.10
  15  0.167  0.333  0.500- 107 2.10 108 2.10 101 2.10  97 2.10 138 2.10 105 2.11
  16  0.000  0.500  0.500- 107 2.10 108 2.10 118 2.10 167 2.10 102 2.10 106 2.11
  17  0.167  0.500  0.590- 115 2.10 136 2.10 106 2.10 105 2.10 107 2.11 109 2.13
  18  0.333  0.333  0.590- 136 2.10 135 2.10 105 2.10 126 2.10 138 2.11 140 2.13
  19  0.167  0.667  0.679- 115 2.09 119 2.10 120 2.10 150 2.10 109 2.10
  20  1.000  0.500  0.679- 106 2.09 109 2.10 120 2.10 110 2.10 169 2.10
  21  0.167  0.667  0.320- 103 2.10 114 2.10 111 2.10 113 2.10 144 2.10
  22  0.000  0.833  0.320-  94 2.10 113 2.10 173 2.10 112 2.10 114 2.10
  23  0.167  0.833  0.410-  91 2.10 112 2.10 113 2.10 117 2.10 111 2.10 142 2.10
  24  0.000  0.667  0.410- 102 2.10 111 2.10 171 2.10 118 2.10 114 2.10 112 2.10
  25  0.167  0.667  0.500- 107 2.10 118 2.10 111 2.10 117 2.10 148 2.10 115 2.11
  26  0.000  0.833  0.500-  98 2.10 117 2.10 177 2.10 112 2.10 118 2.10 116 2.11
  27  0.167  0.833  0.590-  95 2.10 146 2.10 116 2.10 115 2.10 117 2.11 119 2.13
  28  0.333  0.667  0.590- 146 2.10 145 2.10 115 2.10 136 2.10 148 2.11 150 2.13
  29  0.167  1.000  0.679-  95 2.09  99 2.10 100 2.10 130 2.10 119 2.10
  30  1.000  0.833  0.679- 116 2.09 119 2.10 100 2.10 120 2.10 179 2.10
  31  0.500  0.000  0.320- 123 2.10 124 2.10 143 2.10 154 2.10 121 2.10
  32  0.333  0.167  0.320- 123 2.10 124 2.10 122 2.10  93 2.10 134 2.10
  33  0.500  0.167  0.410- 121 2.10 122 2.10 152 2.10 127 2.10 123 2.10 131 2.10
  34  0.333  0.000  0.410- 121 2.10 122 2.10 142 2.10 128 2.10 124 2.10  91 2.10
  35  0.500  0.000  0.500- 127 2.10 128 2.10 147 2.10 158 2.10 121 2.10 125 2.11
  36  0.333  0.167  0.500- 127 2.10 128 2.10 122 2.10  97 2.10 138 2.10 126 2.11
  37  0.500  0.167  0.590- 135 2.10 156 2.10 126 2.10 125 2.10 127 2.11 129 2.13
  38  0.667  1.000  0.590- 156 2.10 155 2.10 125 2.10 176 2.10 158 2.11 160 2.13
  39  0.500  0.333  0.679- 135 2.09 139 2.10 140 2.10 170 2.10 129 2.10
  40  0.333  0.167  0.679- 126 2.09 129 2.10 140 2.10 130 2.10  99 2.10
  41  0.500  0.333  0.320- 133 2.10 134 2.10 164 2.10 131 2.10 123 2.10
  42  0.333  0.500  0.320- 133 2.10 134 2.10 144 2.10 132 2.10 103 2.10
  43  0.500  0.500  0.410- 131 2.10 132 2.10 141 2.10 162 2.10 133 2.10 137 2.10
  44  0.333  0.333  0.410- 131 2.10 132 2.10 134 2.10 138 2.10 101 2.10 122 2.10
  45  0.500  0.333  0.500- 137 2.10 138 2.10 168 2.10 131 2.10 127 2.10 135 2.11
  46  0.333  0.500  0.500- 137 2.10 138 2.10 148 2.10 132 2.10 107 2.10 136 2.11
  47  0.500  0.500  0.590- 145 2.10 166 2.10 136 2.10 135 2.10 137 2.11 139 2.13
  48  0.667  0.333  0.590- 166 2.10 165 2.10 135 2.10 156 2.10 168 2.11 170 2.13
  49  0.500  0.667  0.679- 145 2.09 149 2.10 150 2.10 180 2.10 139 2.10
  50  0.333  0.500  0.679- 136 2.09 139 2.10 150 2.10 140 2.10 109 2.10
  51  0.500  0.667  0.320- 133 2.10 144 2.10 174 2.10 141 2.10 143 2.10
  52  0.333  0.833  0.320- 124 2.10 143 2.10 142 2.10 113 2.10 144 2.10
  53  0.500  0.833  0.410- 121 2.10 142 2.10 172 2.10 147 2.10 143 2.10 141 2.10
  54  0.333  0.667  0.410- 132 2.10 141 2.10 144 2.10 148 2.10 111 2.10 142 2.10
  55  0.500  0.667  0.500- 137 2.10 148 2.10 178 2.10 141 2.10 147 2.10 145 2.11
  56  0.333  0.833  0.500- 128 2.10 147 2.10 142 2.10 117 2.10 148 2.10 146 2.11
  57  0.500  0.833  0.590- 125 2.10 176 2.10 146 2.10 145 2.10 147 2.11 149 2.13
  58  0.667  0.667  0.590- 176 2.10 175 2.10 145 2.10 166 2.10 178 2.11 180 2.13
  59  0.500  1.000  0.679- 125 2.09 129 2.10 130 2.10 160 2.10 149 2.10
  60  0.333  0.833  0.679- 146 2.09 149 2.10 130 2.10 150 2.10 119 2.10
[...]
 166  0.667  0.500  0.590-  80 2.09  48 2.10  47 2.10  77 2.10  58 2.10  76 2.11
 167  0.833  0.500  0.500-  16 2.10  75 2.10  85 2.10  73 2.10  76 2.10  77 2.11
 168  0.667  0.333  0.500-  45 2.10  76 2.10  74 2.10  75 2.10  66 2.10  48 2.11
 169  0.833  0.500  0.681-  69 2.10  80 2.10  20 2.10  79 2.10  77 2.13
 170  0.667  0.333  0.681-  69 2.10  70 2.10  39 2.10  80 2.10  48 2.13
 171  0.833  0.667  0.410-  24 2.10  73 2.10  81 2.10  85 2.10  84 2.10  83 2.10
 172  0.667  0.833  0.410-  53 2.10  64 2.10  82 2.10  86 2.10  84 2.10  83 2.10
 173  0.833  0.833  0.320-  22 2.10  61 2.10  83 2.10  82 2.10  81 2.10
 174  0.667  0.667  0.320-  51 2.10  72 2.10  84 2.10  82 2.10  81 2.10
 175  0.833  0.667  0.590-  79 2.09  77 2.10  58 2.10  88 2.10  87 2.10  85 2.11
 176  0.667  0.833  0.590-  90 2.09  58 2.10  57 2.10  87 2.10  38 2.10  86 2.11
 177  0.833  0.833  0.500-  26 2.10  65 2.10  83 2.10  85 2.10  86 2.10  87 2.11
 178  0.667  0.667  0.500-  55 2.10  76 2.10  84 2.10  85 2.10  86 2.10  58 2.11
 179  0.833  0.833  0.681-  79 2.10  90 2.10  30 2.10  89 2.10  87 2.13
 180  0.667  0.667  0.681-  79 2.10  80 2.10  49 2.10  90 2.10  58 2.13

IMPORTANT INFORMATION: All symmetrisations will be switched off!
NOSYMM: (Re-)initialisation of all symmetry stuff for point group C_1.

                                     Primitive cell

  volume of cell :    3728.4719

  direct lattice vectors                    reciprocal lattice vectors
    12.619370794  0.000000000  0.000000000     0.079243254  0.000000000  0.000000000
     0.000000000 12.619370794  0.000000000     0.000000000  0.079243254  0.000000000
     0.000000000  0.000000000 23.412913863     0.000000000  0.000000000  0.042711471

  length of vectors
    12.619370794 12.619370794 23.412913863     0.079243254  0.079243254  0.042711471

  position of ions in fractional coordinates (direct lattice)
     0.166666667  0.000000000  0.320336035
     0.000000000  0.166666667  0.320336035
     0.166666667  0.166666667  0.410168018
     0.000000000  0.000000000  0.410168018
     0.166666667  0.000000000  0.500000000
     0.000000000  0.166666667  0.500000000
     0.166666523  0.166666616  0.590197308
     0.333333196  0.999999921  0.590197087
     0.166666025  0.333332991  0.679295315
     0.999999646  0.166666251  0.679294382
     0.166666667  0.333333333  0.320336035
     0.000000000  0.500000000  0.320336035
     0.166666667  0.500000000  0.410168018
     0.000000000  0.333333333  0.410168018
     0.166666667  0.333333333  0.500000000
     0.000000000  0.500000000  0.500000000
     0.166666523  0.499999950  0.590197308
     0.333333196  0.333333255  0.590197087
     0.166666025  0.666666325  0.679295315
     0.999999646  0.499999585  0.679294382
     0.166666667  0.666666667  0.320336035
     0.000000000  0.833333333  0.320336035
     0.166666667  0.833333333  0.410168018
     0.000000000  0.666666667  0.410168018
     0.166666667  0.666666667  0.500000000
     0.000000000  0.833333333  0.500000000
     0.166666523  0.833333283  0.590197308
     0.333333196  0.666666588  0.590197087
     0.166666025  0.999999658  0.679295315
     0.999999646  0.833332918  0.679294382
     0.500000000  0.000000000  0.320336035
     0.333333333  0.166666667  0.320336035
     0.500000000  0.166666667  0.410168018
     0.333333333  0.000000000  0.410168018
     0.500000000  0.000000000  0.500000000
     0.333333333  0.166666667  0.500000000
     0.499999856  0.166666616  0.590197308
     0.666666529  0.999999921  0.590197087
     0.499999358  0.333332991  0.679295315
     0.333332979  0.166666251  0.679294382
     0.500000000  0.333333333  0.320336035
     0.333333333  0.500000000  0.320336035
     0.500000000  0.500000000  0.410168018
     0.333333333  0.333333333  0.410168018
     0.500000000  0.333333333  0.500000000
     0.333333333  0.500000000  0.500000000
     0.499999856  0.499999950  0.590197308
     0.666666529  0.333333255  0.590197087
     0.499999358  0.666666325  0.679295315
     0.333332979  0.499999585  0.679294382
     0.500000000  0.666666667  0.320336035
     0.333333333  0.833333333  0.320336035
     0.500000000  0.833333333  0.410168018
[...]
   0.206E-03 0.154E-02 0.180E+04   -.441E-05 -.645E-05 -.180E+04   -.143E-05 -.163E-01 0.540E+00   -.277E-03 0.149E-03 -.536E-02
   0.219E-02 0.250E-02 -.165E+01   0.233E-03 0.136E-03 0.147E+01   -.113E-01 -.115E-01 0.178E+00   -.747E-04 -.286E-03 -.160E-02
   0.155E-03 -.346E-02 -.165E+01   0.544E-04 0.366E-03 0.147E+01   0.295E-03 0.166E-01 0.178E+00   -.426E-03 0.488E-04 -.210E-02
   0.227E-02 -.128E-02 -.180E+04   -.289E-03 -.829E-03 0.180E+04   -.129E-01 0.123E-01 -.386E+00   0.791E-03 -.950E-04 0.599E-02
   -.370E-03 0.508E-02 -.180E+04   -.168E-02 -.256E-02 0.180E+04   0.117E-01 -.120E-01 -.386E+00   0.363E-03 -.571E-03 0.612E-02
   0.199E-02 0.155E-02 -.359E+04   0.992E-03 -.168E-02 0.358E+04   -.161E-01 -.433E-03 0.816E+01   0.653E-04 0.494E-03 -.161E-01
   0.119E-02 -.389E-02 -.359E+04   -.128E-02 0.859E-03 0.358E+04   -.258E-03 0.165E-01 0.815E+01   0.319E-03 -.270E-03 -.157E-01
   -.607E-04 0.517E-04 0.361E+04   0.166E-06 -.166E-06 -.360E+04   -.137E-03 -.187E-03 -.912E+01   0.202E-03 0.106E-03 0.172E-01
   -.292E-02 0.277E-02 0.361E+04   -.144E-06 0.217E-06 -.360E+04   0.116E-01 -.113E-01 -.912E+01   0.450E-03 -.524E-03 0.168E-01
   -.879E-04 0.188E-02 0.180E+04   0.276E-05 0.239E-05 -.180E+04   -.308E-03 -.167E-01 0.541E+00   0.355E-03 0.138E-03 -.563E-02
   -.188E-02 0.303E-04 0.180E+04   -.441E-05 -.645E-05 -.180E+04   0.157E-01 -.271E-03 0.540E+00   0.843E-03 0.198E-03 -.498E-02
   -.432E-03 -.193E-03 -.165E+01   0.233E-03 0.136E-03 0.147E+01   -.364E-03 -.258E-06 0.178E+00   0.492E-03 0.126E-03 -.134E-02
   -.282E-02 0.237E-02 -.165E+01   0.544E-04 0.366E-03 0.147E+01   0.121E-01 -.117E-01 0.178E+00   -.320E-03 -.100E-03 -.122E-02
   0.357E-03 0.288E-02 -.180E+04   -.289E-03 -.829E-03 0.180E+04   -.125E-03 -.152E-01 -.386E+00   0.689E-04 -.451E-03 0.602E-02
   0.368E-02 0.261E-02 -.180E+04   -.168E-02 -.256E-02 0.180E+04   -.156E-01 0.211E-03 -.386E+00   -.743E-04 -.246E-03 0.583E-02
   -.627E-03 -.123E-02 -.359E+04   0.992E-03 -.168E-02 0.358E+04   0.248E-03 0.156E-01 0.816E+01   -.642E-03 0.519E-03 -.165E-01
   -.125E-02 0.175E-02 -.359E+04   -.128E-02 0.859E-03 0.358E+04   0.121E-01 -.119E-01 0.815E+01   -.114E-03 -.146E-03 -.161E-01
   -.905E-04 -.282E-02 0.361E+04   0.166E-06 -.166E-06 -.360E+04   -.123E-03 0.164E-01 -.912E+01   0.193E-03 0.356E-03 0.170E-01
   -.299E-02 -.923E-04 0.361E+04   -.144E-06 0.217E-06 -.360E+04   0.170E-01 -.109E-03 -.912E+01   -.910E-04 0.194E-03 0.172E-01
   -.518E-04 -.196E-03 0.180E+04   0.276E-05 0.239E-05 -.180E+04   0.578E-03 -.318E-03 0.545E+00   -.495E-03 0.530E-03 -.562E-02
   -.206E-02 -.211E-02 0.180E+04   -.441E-05 -.645E-05 -.180E+04   0.124E-01 0.122E-01 0.541E+00   0.272E-05 0.194E-03 -.605E-02
   -.333E-03 -.280E-02 -.165E+01   0.233E-03 0.136E-03 0.147E+01   0.116E-03 0.166E-01 0.178E+00   -.278E-04 -.413E-03 -.159E-02
   -.304E-02 -.439E-03 -.165E+01   0.544E-04 0.366E-03 0.147E+01   0.166E-01 -.108E-03 0.178E+00   -.892E-04 0.163E-03 -.151E-02
   0.519E-03 0.957E-03 -.180E+04   -.289E-03 -.829E-03 0.180E+04   -.143E-03 0.740E-03 -.382E+00   -.167E-03 -.846E-03 0.645E-02
   0.395E-02 0.731E-03 -.180E+04   -.168E-02 -.256E-02 0.180E+04   -.123E-01 0.120E-01 -.386E+00   -.105E-03 -.183E-03 0.609E-02
   -.108E-02 0.492E-02 -.359E+04   0.992E-03 -.168E-02 0.358E+04   -.218E-03 -.165E-01 0.815E+01   0.369E-03 0.218E-03 -.156E-01
   -.167E-02 -.726E-03 -.359E+04   -.128E-02 0.859E-03 0.358E+04   0.163E-01 -.292E-04 0.815E+01   -.229E-03 -.120E-03 -.162E-01
   -.278E-03 0.282E-02 0.361E+04   0.166E-06 -.165E-06 -.360E+04   -.117E-03 -.165E-01 -.912E+01   0.457E-03 -.315E-03 0.173E-01
   -.296E-02 -.272E-02 0.361E+04   -.144E-06 0.217E-06 -.360E+04   0.120E-01 0.118E-01 -.912E+01   -.131E-04 0.543E-04 0.167E-01
   -.182E-03 -.160E-02 0.180E+04   0.276E-05 0.239E-05 -.180E+04   0.510E-03 0.160E-01 0.540E+00   -.323E-03 0.254E-03 -.522E-02
   -.238E-02 0.204E-02 0.180E+04   -.441E-05 -.645E-05 -.180E+04   0.122E-01 -.129E-01 0.541E+00   0.493E-03 0.604E-03 -.526E-02
   -.313E-03 0.268E-02 -.165E+01   0.233E-03 0.136E-03 0.147E+01   0.352E-03 -.164E-01 0.178E+00   -.179E-03 -.143E-04 -.128E-02
   -.304E-02 -.318E-02 -.165E+01   0.544E-04 0.366E-03 0.147E+01   0.117E-01 0.114E-01 0.178E+00   0.357E-03 0.403E-03 -.193E-02
   0.642E-04 -.102E-02 -.180E+04   -.289E-03 -.829E-03 0.180E+04   -.509E-03 0.154E-01 -.386E+00   0.761E-03 -.293E-04 0.605E-02
   0.399E-02 0.505E-02 -.180E+04   -.168E-02 -.256E-02 0.180E+04   -.123E-01 -.127E-01 -.386E+00   -.677E-04 0.160E-03 0.590E-02
   -.106E-02 0.166E-02 -.359E+04   0.992E-03 -.168E-02 0.358E+04   -.193E-03 -.431E-03 0.816E+01   0.240E-03 0.457E-03 -.159E-01
   -.122E-02 -.347E-02 -.359E+04   -.128E-02 0.859E-03 0.358E+04   0.125E-01 0.122E-01 0.815E+01   -.602E-03 -.126E-04 -.162E-01
[...]
   -.710E-03 0.144E-04 -.168E+01   0.378E-04 -.154E-04 0.171E+01   0.954E-02 -.115E-03 0.281E-01   -.503E-03 0.122E-03 -.114E-02
   0.808E-03 -.766E-03 -.168E+01   -.585E-04 -.129E-03 0.171E+01   -.114E-01 0.112E-01 0.282E-01   -.474E-04 0.251E-03 -.119E-02
   -.216E-02 -.117E-02 -.219E+04   0.108E-02 0.135E-02 0.219E+04   0.520E-01 0.101E-03 -.483E+01   0.146E-03 -.295E-03 -.190E-01
   0.157E-02 -.388E-03 -.219E+04   -.851E-03 -.476E-03 0.219E+04   -.342E-02 0.331E-02 -.490E+01   0.144E-03 0.325E-04 -.191E-01
   -.119E-02 0.805E-03 0.108E+04   0.278E-05 -.131E-05 -.108E+04   -.363E-01 0.362E-01 0.122E-01   -.124E-04 0.521E-03 -.397E-02
   0.110E-02 -.145E-02 0.108E+04   -.153E-05 0.401E-05 -.108E+04   0.363E-01 -.364E-01 0.121E-01   0.123E-03 0.271E-03 -.414E-02
   -.589E-03 -.111E-02 0.218E+04   0.866E-07 0.998E-07 -.218E+04   0.114E-01 0.111E-01 0.354E+01   -.108E-03 0.672E-03 0.213E-01
   0.101E-02 0.762E-03 0.218E+04   -.992E-07 -.129E-06 -.218E+04   -.111E-01 -.113E-01 0.354E+01   -.492E-03 -.776E-04 0.205E-01
   -.221E-02 0.372E-03 -.108E+04   0.135E-02 0.969E-03 0.108E+04   -.362E-01 0.362E-01 0.324E+00   -.390E-03 -.146E-03 0.582E-02
   0.105E-02 -.302E-02 -.108E+04   0.414E-03 0.202E-02 0.108E+04   0.363E-01 -.363E-01 0.325E+00   -.336E-03 -.166E-03 0.512E-02
   -.650E-03 -.860E-03 -.168E+01   0.378E-04 -.154E-04 0.171E+01   0.113E-01 0.113E-01 0.284E-01   -.285E-04 0.138E-03 -.201E-02
   0.729E-03 0.101E-02 -.168E+01   -.585E-04 -.129E-03 0.171E+01   -.115E-01 -.113E-01 0.282E-01   0.142E-03 -.181E-03 -.125E-02
   -.202E-02 -.221E-02 -.219E+04   0.108E-02 0.135E-02 0.219E+04   0.315E-02 0.337E-02 -.490E+01   0.273E-03 0.171E-04 -.191E-01
   0.168E-02 0.145E-02 -.219E+04   -.851E-03 -.476E-03 0.219E+04   -.333E-02 -.334E-02 -.490E+01   -.991E-04 -.226E-03 -.190E-01
   0.483E-02 0.547E-02 0.293E+02   -.105E-11 -.648E-12 0.273E-10   -.716E-02 -.686E-02 -.291E+02   0.636E-03 -.462E-03 0.448E-01

 POSITION                                       TOTAL-FORCE (eV/Angst)
      2.10323      0.00000      7.50000        -0.013838      0.000011      0.240522
      0.00000      2.10323      7.50000         0.000042     -0.013927      0.239703
      2.10323      2.10323      9.60323        -0.010433     -0.010295     -0.012993
      0.00000      0.00000      9.60323         0.000031     -0.000046     -0.008602
      2.10323      0.00000     11.70646        -0.013670      0.000083     -0.005161
      0.00000      2.10323     11.70646        -0.000023     -0.013660     -0.005183
      2.10323      2.10323     13.81824        -0.009938     -0.010110      0.007738
      4.20646     12.61937     13.81823         0.013597     -0.000019      0.007923
      2.10322      4.20645     15.90428        -0.009454      0.009377      0.092482
     12.61937      2.10322     15.90426        -0.000009     -0.013191      0.098813
      2.10323      4.20646      7.50000        -0.009154      0.009024      0.239085
      0.00000      6.30969      7.50000         0.000062      0.000019      0.236609
      2.10323      6.30969      9.60323        -0.014543      0.000037     -0.013029
      0.00000      4.20646      9.60323         0.000008      0.014625     -0.013168
      2.10323      4.20646     11.70646        -0.009205      0.009051     -0.005203
      0.00000      6.30969     11.70646        -0.000040     -0.000104     -0.005166
      2.10323      6.30968     13.81824        -0.013606     -0.000153      0.007902
      4.20646      4.20646     13.81823         0.010080      0.010016      0.007693
      2.10322      8.41291     15.90428        -0.009545     -0.009543      0.092038
     12.61937      6.30968     15.90426        -0.000105      0.000070      0.100788
      2.10323      8.41291      7.50000        -0.009134     -0.009224      0.240004
      0.00000     10.51614      7.50000         0.000047      0.014017      0.240573
      2.10323     10.51614      9.60323        -0.010367      0.010205     -0.013016
      0.00000      8.41291      9.60323        -0.000068     -0.014599     -0.013137
      2.10323      8.41291     11.70646        -0.008933     -0.009094     -0.005180
      0.00000     10.51614     11.70646         0.000088      0.013596     -0.005221
      2.10323     10.51614     13.81824        -0.010099      0.010106      0.007671
      4.20646      8.41291     13.81823         0.010003     -0.010056      0.007696
      2.10322     12.61937     15.90428        -0.013088     -0.000061      0.099190
     12.61937     10.51614     15.90426        -0.000018      0.013207      0.098701
      6.30969      0.00000      7.50000         0.000014     -0.000019      0.236257
      4.20646      2.10323      7.50000         0.009097     -0.009092      0.239061
      6.30969      2.10323      9.60323        -0.000029     -0.014652     -0.013181
      4.20646      0.00000      9.60323         0.014639     -0.000038     -0.013144
      6.30969      0.00000     11.70646        -0.000062      0.000079     -0.005133
      4.20646      2.10323     11.70646         0.009067     -0.009081     -0.005124
      6.30968      2.10323     13.81824         0.000020     -0.013617      0.007838
      8.41291     12.61937     13.81823        -0.013616      0.000024      0.007861
      6.30968      4.20645     15.90428        -0.000019      0.013193      0.098516
      4.20645      2.10322     15.90426         0.009427     -0.009428      0.092742
      6.30969      4.20646      7.50000        -0.000011      0.013895      0.240609
      4.20646      6.30969      7.50000         0.013932      0.000003      0.240337
      6.30969      6.30969      9.60323         0.000043      0.000029     -0.008582
      4.20646      4.20646      9.60323         0.010352      0.010262     -0.013032
      6.30969      4.20646     11.70646        -0.000002      0.013570     -0.005144
      4.20646      6.30969     11.70646         0.013555     -0.000008     -0.005202
      6.30968      6.30968     13.81824        -0.000071      0.000032      0.011999
      8.41291      4.20646     13.81823        -0.010112      0.009994      0.007693
      6.30968      8.41291     15.90428         0.000070     -0.013017      0.098351
      4.20645      6.30968     15.90426         0.013115     -0.000005      0.098743
      6.30969      8.41291      7.50000         0.000072     -0.013944      0.240210
      4.20646     10.51614      7.50000         0.009077      0.009165      0.239941
      6.30969     10.51614      9.60323         0.000017      0.014646     -0.013216
      4.20646      8.41291      9.60323         0.010348     -0.010217     -0.012972
      6.30969      8.41291     11.70646         0.000103     -0.013627     -0.005105
      4.20646     10.51614     11.70646         0.009052      0.009041     -0.005273
      6.30968     10.51614     13.81824         0.000036      0.013569      0.007813
      8.41291      8.41291     13.81823        -0.010056     -0.010086      0.007699
      6.30968     12.61937     15.90428        -0.000017      0.000013      0.100743
      4.20645     10.51614     15.90426         0.009433      0.009616      0.091943
[...]
      8.41291      6.30968     13.81328         0.010231      0.000012     -0.038405
     10.51614      6.30969     11.70646         0.008375      0.000015      0.052406
      8.41291      4.20646     11.70646        -0.010647      0.010616      0.052430
     10.51614      6.30968     15.94556         0.051028     -0.000003      0.242403
      8.41291      4.20645     15.94555        -0.002551      0.002491      0.172301
     10.51614      8.41291      9.60323        -0.037506      0.037519      0.018765
      8.41291     10.51614      9.60323         0.037535     -0.037578      0.018726
     10.51614     10.51614      7.50000         0.010711      0.010675     -0.585261
      8.41291      8.41291      7.50000        -0.010591     -0.010646     -0.585225
     10.51614      8.41291     13.81329        -0.037450      0.037425      0.004948
      8.41291     10.51613     13.81328         0.037479     -0.037423      0.004929
     10.51614     10.51614     11.70646         0.010680      0.010600      0.052463
      8.41291      8.41291     11.70646        -0.010636     -0.010636      0.052419
     10.51614     10.51613     15.94556         0.002490      0.002532      0.172296
      8.41291      8.41291     15.94555        -0.002581     -0.002583      0.172332
    total drift:                               -0.001695     -0.001847      0.274568

  FREE ENERGIE OF THE ION-ELECTRON SYSTEM (eV)
  free  energy   TOTEN  =     -1052.04717947 eV

  energy  without entropy=    -1052.04717947  energy(sigma->0) =    -1052.04717947

 total charge

# of ion       s       p       d       tot
    1        2.069   6.002   0.035   8.106
    2        2.069   6.002   0.035   8.106
    3        2.071   6.013   0.041   8.126
    4        2.071   6.013   0.041   8.126
    5        2.071   6.012   0.041   8.124
    6        2.071   6.012   0.041   8.124
    7        2.071   6.012   0.041   8.124
    8        2.071   6.012   0.041   8.124
    9        2.069   6.003   0.035   8.107
   10        2.069   6.003   0.035   8.107
   11        2.069   6.002   0.035   8.106
   12        2.069   6.002   0.035   8.106
   13        2.071   6.013   0.041   8.126
   14        2.071   6.013   0.041   8.126
   15        2.071   6.012   0.041   8.124
   16        2.070   6.012   0.041   8.124
   17        2.071   6.012   0.041   8.124
   18        2.071   6.012   0.041   8.124
   19        2.069   6.003   0.035   8.107
   20        2.069   6.003   0.035   8.107
   21        2.069   6.002   0.035   8.106
   22        2.069   6.002   0.035   8.106
   23        2.071   6.013   0.041   8.126
   24        2.071   6.013   0.041   8.126
   25        2.071   6.012   0.041   8.124
   26        2.071   6.012   0.041   8.124
   27        2.071   6.012   0.041   8.124
   28        2.071   6.012   0.041   8.124
   29        2.069   6.003   0.035   8.107
   30        2.069   6.003   0.035   8.107
   31        2.069   6.002   0.035   8.106
   32        2.069   6.002   0.035   8.106
   33        2.071   6.013   0.041   8.126
   34        2.071   6.013   0.041   8.126
   35        2.070   6.012   0.041   8.124
   36        2.071   6.012   0.041   8.124
   37        2.071   6.012   0.041   8.124
   38        2.071   6.012   0.041   8.124
   39        2.069   6.003   0.035   8.107
   40        2.069   6.003   0.035   8.107
   41        2.069   6.002   0.035   8.106
   42        2.069   6.002   0.035   8.106
   43        2.071   6.013   0.041   8.126
   44        2.071   6.013   0.041   8.126
   45        2.071   6.012   0.041   8.124
   46        2.071   6.012   0.041   8.124
   47        2.071   6.012   0.041   8.124
   48        2.071   6.012   0.041   8.124
   49        2.069   6.003   0.035   8.107
   50        2.069   6.003   0.035   8.107
   51        2.069   6.002   0.035   8.106
   52        2.069   6.002   0.035   8.106
   53        2.071   6.013   0.041   8.126
   54        2.071   6.013   0.041   8.126
   55        2.071   6.012   0.041   8.124
   56        2.071   6.012   0.041   8.124
   57        2.071   6.012   0.041   8.124
   58        2.071   6.012   0.041   8.124
   59        2.069   6.003   0.035   8.107
   60        2.069   6.003   0.035   8.107
[...]
  166        1.545   3.563   0.000   5.108
  167        1.544   3.563   0.000   5.107
  168        1.544   3.563   0.000   5.107
  169        1.545   3.508   0.000   5.053
  170        1.545   3.508   0.000   5.053
  171        1.545   3.563   0.000   5.107
  172        1.545   3.563   0.000   5.107
  173        1.545   3.511   0.000   5.056
  174        1.545   3.511   0.000   5.056
  175        1.545   3.563   0.000   5.108
  176        1.545   3.563   0.000   5.108
  177        1.544   3.563   0.000   5.107
  178        1.544   3.563   0.000   5.107
  179        1.545   3.508   0.000   5.053
  180        1.545   3.508   0.000   5.053
tot        325.341 859.513   3.4701188.324