 vasp.5.4.4.18Apr17-6-g9f103f2a35 (build Dec 01 2020 10:32:28) complex

 executed on             LinuxIFC date 2021.01.02  00:17:06

 INCAR:
 POTCAR:    PAW_PBE Ti_sv 26Sep2005
 POTCAR:    PAW_PBE O 08Apr2002
 POTCAR:    PAW_PBE Ti_sv 26Sep2005
   VRHFIN =Ti: 3p4s3d

   TITEL  = PAW_PBE Ti_sv 26Sep2005
   POMASS =   47.880; ZVAL   =   12.000    mass and valenz
   ENMAX  =  274.610; ENMIN  =  205.957 eV

   TITEL  = PAW_PBE O 08Apr2002
   POMASS =   16.000; ZVAL   =    6.000    mass and valenz
   ENMAX  =  400.000; ENMIN  =  300.000 eV

  PAW_PBE Ti_sv 26Sep2005               :
  PAW_PBE O 08Apr2002                   :

 POSCAR: Ti2 O4
  positions in direct lattice
  velocities in cartesian coordinates
 exchange correlation table for  LEXCH =        8
   RHO(1)=    0.500       N(1)  =     2000
   RHO(2)=  100.500       N(2)  =     4000

 ion  position               nearest neighbor table
   1  0.500  0.500  0.500-   5 1.94   6 1.94   5 1.94   6 1.94   3 1.98   4 1.98
   2  0.000  0.000  0.000-   3 1.94   4 1.94   3 1.94   4 1.94   5 1.98   6 1.98
   3  0.195  0.805  0.500-   2 1.94   2 1.94   1 1.98
   4  0.805  0.195  0.500-   2 1.94   2 1.94   1 1.98
   5  0.305  0.305  0.000-   1 1.94   1 1.94   2 1.98
   6  0.695  0.695  0.000-   1 1.94   1 1.94   2 1.98

  LATTYP: Found a simple tetragonal cell.
 ALAT       =     4.5878573481
 C/A-ratio  =     0.6426769036

  Lattice vectors:

 A1 = (   4.5878573481,   0.0000000000,   0.0000000000)
 A2 = (   0.0000000000,   4.5878573481,   0.0000000000)
 A3 = (   0.0000000000,   0.0000000000,   2.9485099548)

Analysis of symmetry for initial positions (statically):
 Subroutine PRICEL returns:
 Original cell was already a primitive cell.

 Routine SETGRP: Setting up the symmetry group for a
 simple tetragonal supercell.

 Subroutine GETGRP returns: Found 16 space group operations
 (whereof  8 operations were pure point group operations)
 out of a pool of 16 trial point group operations.

The static configuration has the point symmetry D_2h.
 The point group associated with its full space group is D_4h.

Analysis of symmetry for dynamics (positions and initial velocities):
 Subroutine PRICEL returns:
 Original cell was already a primitive cell.

[...]

The dynamic configuration has the point symmetry D_2h.
 The point group associated with its full space group is D_4h.

Analysis of structural, dynamic, and magnetic symmetry:
 Subroutine PRICEL returns:
 Original cell was already a primitive cell.

 Routine SETGRP: Setting up the symmetry group for a
 simple tetragonal supercell.

 Subroutine GETGRP returns: Found 16 space group operations
 (whereof  8 operations were pure point group operations)
 out of a pool of 16 trial point group operations.

The magnetic configuration has the point symmetry D_2h.
 The point group associated with its full space group is D_4h.

 Subroutine INISYM returns: Found 16 space group operations
 (whereof  8 operations are pure point group operations),
 and found     1 'primitive' translations

 KPOINTS: pymatgen v2020.8.13 with grid density =

Automatic generation of k-mesh.
Space group operators:
 irot       det(A)        alpha          n_x          n_y          n_z        tau_x        tau_y        tau_z
    1     1.000000     0.000000     1.000000     0.000000     0.000000     0.000000     0.000000     0.000000
    2    -1.000000     0.000000     1.000000     0.000000     0.000000     0.000000     0.000000     0.000000
    3     1.000000   180.000000     0.000000     0.000000     1.000000     0.000000     0.000000     0.000000
    4    -1.000000   180.000000     0.000000     0.000000     1.000000     0.000000     0.000000     0.000000
    5     1.000000   180.000000     0.707107     0.707107     0.000000     0.000000     0.000000     0.000000
    6    -1.000000   180.000000     0.707107     0.707107     0.000000     0.000000     0.000000     0.000000
    7     1.000000   180.000000     0.707107    -0.707107     0.000000     0.000000     0.000000     0.000000
    8    -1.000000   180.000000     0.707107    -0.707107     0.000000     0.000000     0.000000     0.000000
    9     1.000000    90.000000     0.000000     0.000000    -1.000000     0.500000     0.500000     0.500000
   10    -1.000000    90.000000     0.000000     0.000000    -1.000000     0.500000     0.500000     0.500000
   11     1.000000    90.000000     0.000000     0.000000     1.000000     0.500000     0.500000     0.500000
   12    -1.000000    90.000000     0.000000     0.000000     1.000000     0.500000     0.500000     0.500000
   13     1.000000   180.000000     0.000000     1.000000     0.000000     0.500000     0.500000     0.500000
   14    -1.000000   180.000000     0.000000     1.000000     0.000000     0.500000     0.500000     0.500000
   15     1.000000   180.000000     1.000000     0.000000     0.000000     0.500000     0.500000     0.500000
   16    -1.000000   180.000000     1.000000     0.000000     0.000000     0.500000     0.500000     0.500000

 Subroutine IBZKPT returns following result:

 Found     30 irreducible k-points:

 Following reciprocal coordinates:
            Coordinates               Weight
  0.000000  0.000000  0.000000      1.000000
  0.200000  0.000000  0.000000      4.000000
  0.400000  0.000000  0.000000      4.000000
  0.200000  0.200000  0.000000      4.000000
  0.400000  0.200000  0.000000      8.000000
  0.400000  0.400000  0.000000      4.000000
  0.000000  0.000000  0.125000      2.000000
  0.200000  0.000000  0.125000      8.000000
  0.400000  0.000000  0.125000      8.000000
  0.200000  0.200000  0.125000      8.000000
  0.400000  0.200000  0.125000     16.000000
  0.400000  0.400000  0.125000      8.000000
  0.000000  0.000000  0.250000      2.000000
  0.200000  0.000000  0.250000      8.000000
  0.400000  0.000000  0.250000      8.000000
  0.200000  0.200000  0.250000      8.000000
  0.400000  0.200000  0.250000     16.000000
  0.400000  0.400000  0.250000      8.000000
  0.000000  0.000000  0.375000      2.000000
  0.200000  0.000000  0.375000      8.000000
  0.400000  0.000000  0.375000      8.000000
  0.200000  0.200000  0.375000      8.000000
  0.400000  0.200000  0.375000     16.000000
  0.400000  0.400000  0.375000      8.000000
  0.000000  0.000000  0.500000      1.000000
  0.200000  0.000000  0.500000      4.000000
  0.400000  0.000000  0.500000      4.000000
  0.200000  0.200000  0.500000      4.000000
  0.400000  0.200000  0.500000      8.000000
  0.400000  0.400000  0.500000      4.000000

 Following cartesian coordinates:
            Coordinates               Weight
  0.000000  0.000000  0.000000      1.000000
  0.043593  0.000000  0.000000      4.000000
  0.087187  0.000000  0.000000      4.000000
  0.043593  0.043593  0.000000      4.000000
  0.087187  0.043593  0.000000      8.000000
  0.087187  0.087187  0.000000      4.000000
  0.000000  0.000000  0.042394      2.000000
  0.043593  0.000000  0.042394      8.000000
  0.087187  0.000000  0.042394      8.000000
  0.043593  0.043593  0.042394      8.000000
  0.087187  0.043593  0.042394     16.000000
  0.087187  0.087187  0.042394      8.000000
  0.000000  0.000000  0.084789      2.000000
  0.043593  0.000000  0.084789      8.000000
  0.087187  0.000000  0.084789      8.000000
  0.043593  0.043593  0.084789      8.000000
  0.087187  0.043593  0.084789     16.000000
  0.087187  0.087187  0.084789      8.000000
  0.000000  0.000000  0.127183      2.000000
  0.043593  0.000000  0.127183      8.000000
  0.087187  0.000000  0.127183      8.000000
  0.043593  0.043593  0.127183      8.000000
  0.087187  0.043593  0.127183     16.000000
  0.087187  0.087187  0.127183      8.000000
  0.000000  0.000000  0.169577      1.000000
  0.043593  0.000000  0.169577      4.000000
  0.087187  0.000000  0.169577      4.000000
  0.043593  0.043593  0.169577      4.000000
  0.087187  0.043593  0.169577      8.000000
  0.087187  0.087187  0.169577      4.000000

 Subroutine IBZKPT_HF returns following result:

 Found    200 k-points in 1st BZ
 the following    200 k-points will be used (e.g. in the exchange kernel)
 Following reciprocal coordinates:   # in IRBZ
  0.000000  0.000000  0.000000    0.00500000   1 t-inv F
  0.200000  0.000000  0.000000    0.00500000   2 t-inv F
  0.400000  0.000000  0.000000    0.00500000   3 t-inv F
  0.200000  0.200000  0.000000    0.00500000   4 t-inv F
  0.400000  0.200000  0.000000    0.00500000   5 t-inv F
  0.400000  0.400000  0.000000    0.00500000   6 t-inv F
  0.000000  0.000000  0.125000    0.00500000   7 t-inv F
  0.200000  0.000000  0.125000    0.00500000   8 t-inv F
  0.400000  0.000000  0.125000    0.00500000   9 t-inv F
  0.200000  0.200000  0.125000    0.00500000  10 t-inv F
  0.400000  0.200000  0.125000    0.00500000  11 t-inv F
  0.400000  0.400000  0.125000    0.00500000  12 t-inv F
  0.000000  0.000000  0.250000    0.00500000  13 t-inv F
  0.200000  0.000000  0.250000    0.00500000  14 t-inv F
  0.400000  0.000000  0.250000    0.00500000  15 t-inv F
  0.200000  0.200000  0.250000    0.00500000  16 t-inv F
  0.400000  0.200000  0.250000    0.00500000  17 t-inv F
  0.400000  0.400000  0.250000    0.00500000  18 t-inv F
  0.000000  0.000000  0.375000    0.00500000  19 t-inv F
  0.200000  0.000000  0.375000    0.00500000  20 t-inv F
  0.400000  0.000000  0.375000    0.00500000  21 t-inv F
  0.200000  0.200000  0.375000    0.00500000  22 t-inv F
  0.400000  0.200000  0.375000    0.00500000  23 t-inv F
  0.400000  0.400000  0.375000    0.00500000  24 t-inv F
  0.000000  0.000000  0.500000    0.00500000  25 t-inv F
  0.200000  0.000000  0.500000    0.00500000  26 t-inv F
  0.400000  0.000000  0.500000    0.00500000  27 t-inv F
  0.200000  0.200000  0.500000    0.00500000  28 t-inv F
  0.400000  0.200000  0.500000    0.00500000  29 t-inv F
  0.400000  0.400000  0.500000    0.00500000  30 t-inv F
 -0.200000  0.000000  0.000000    0.00500000   2 t-inv F
  0.000000  0.200000  0.000000    0.00500000   2 t-inv F
  0.000000 -0.200000  0.000000    0.00500000   2 t-inv F
 -0.400000  0.000000  0.000000    0.00500000   3 t-inv F
  0.000000  0.400000  0.000000    0.00500000   3 t-inv F
  0.000000 -0.400000  0.000000    0.00500000   3 t-inv F
 -0.200000 -0.200000  0.000000    0.00500000   4 t-inv F
 -0.200000  0.200000  0.000000    0.00500000   4 t-inv F
  0.200000 -0.200000  0.000000    0.00500000   4 t-inv F
 -0.400000 -0.200000  0.000000    0.00500000   5 t-inv F
  0.200000  0.400000  0.000000    0.00500000   5 t-inv F
 -0.200000 -0.400000  0.000000    0.00500000   5 t-inv F
 -0.200000  0.400000  0.000000    0.00500000   5 t-inv F
  0.200000 -0.400000  0.000000    0.00500000   5 t-inv F
 -0.400000  0.200000  0.000000    0.00500000   5 t-inv F
  0.400000 -0.200000  0.000000    0.00500000   5 t-inv F
 -0.400000 -0.400000  0.000000    0.00500000   6 t-inv F
 -0.400000  0.400000  0.000000    0.00500000   6 t-inv F
  0.400000 -0.400000  0.000000    0.00500000   6 t-inv F
  0.000000  0.000000 -0.125000    0.00500000   7 t-inv F
 -0.200000  0.000000 -0.125000    0.00500000   8 t-inv F
 -0.200000  0.000000  0.125000    0.00500000   8 t-inv F
  0.200000  0.000000 -0.125000    0.00500000   8 t-inv F
[...]
 k-point 16 :   0.2000 0.2000 0.2500  plane waves:    2065
 k-point 17 :   0.4000 0.2000 0.2500  plane waves:    2073
 k-point 18 :   0.4000 0.4000 0.2500  plane waves:    2066
 k-point 19 :   0.0000 0.0000 0.3750  plane waves:    2072
 k-point 20 :   0.2000 0.0000 0.3750  plane waves:    2083
 k-point 21 :   0.4000 0.0000 0.3750  plane waves:    2085
 k-point 22 :   0.2000 0.2000 0.3750  plane waves:    2070
 k-point 23 :   0.4000 0.2000 0.3750  plane waves:    2070
 k-point 24 :   0.4000 0.4000 0.3750  plane waves:    2074
 k-point 25 :   0.0000 0.0000 0.5000  plane waves:    2092
 k-point 26 :   0.2000 0.0000 0.5000  plane waves:    2090
 k-point 27 :   0.4000 0.0000 0.5000  plane waves:    2068
 k-point 28 :   0.2000 0.2000 0.5000  plane waves:    2080
 k-point 29 :   0.4000 0.2000 0.5000  plane waves:    2082
 k-point 30 :   0.4000 0.4000 0.5000  plane waves:    2070

 maximum and minimum number of plane-waves per node :       125       80

 maximum number of plane-waves:      2092
 maximum index in each direction:
   IXMAX=    9   IYMAX=    9   IZMAX=    5
   IXMIN=   -9   IYMIN=   -9   IZMIN=   -6

 parallel 3D FFT for wavefunctions:
    minimum data exchange during FFTs selected (reduces bandwidth)
 parallel 3D FFT for charge:
    minimum data exchange during FFTs selected (reduces bandwidth)

 FFT grid for exact exchange (Hartree Fock)
  NGX = 28; NGY = 28; NGZ = 18

 Radii for the augmentation spheres in the non-local exchange
 for species   1 augmentation radius   1.300 (default was   1.040)
       energy cutoff for augmentation   2400.0
 for species   2 augmentation radius   0.902 (default was   0.722)
       energy cutoff for augmentation   2400.0

 real space projection operators:
  max/ min on nodes  :         74.16         29.27

 Maximum index for augmentation-charges in exchange          193
  SETUP_FOCK is finished

 Broyden mixing: mesh for mixing (old mesh)
   NGX = 19   NGY = 19   NGZ = 11
  (NGX  = 80   NGY  = 80   NGZ  = 48)
  gives a total of   3971 points

 initial charge density was supplied:
 charge density of overlapping atoms calculated
 number of electron      48.0000000 magnetization       6.0000000
 keeping initial charge density in first step

 Maximum index for augmentation-charges          957 (set IRDMAX)

 First call to EWALD:  gamma=   0.448
 Maximum number of real-space cells 2x 2x 4
 Maximum number of reciprocal cells 3x 3x 2

--------------------------------------- Iteration      1(   1)  ---------------------------------------

 eigenvalue-minimisations  :  4368
 total energy-change (2. order) : 0.9733882E+03  (-0.2621148E+04)
 number of electron      48.0000000 magnetization       6.0000000
 augmentation part       48.0000000 magnetization       6.0000000

 Free energy of the ion-electron system (eV)
  alpha Z        PSCENC =       199.80534429
  Ewald energy   TEWEN  =     -3601.92097705
  -Hartree energ DENC   =     -1253.50700647
  -exchange      EXHF   =         0.00000000
  -V(xc)+E(xc)   XCENC  =       181.09206056
  PAW double counting   =      3967.00183574    -3922.50264074
  entropy T*S    EENTRO =        -0.00268757
  eigenvalues    EBANDS =       517.52853804
  atomic energy  EATOM  =      4885.89376647
  free energy    TOTEN  =       973.38823327 eV

  energy without entropy =      973.39092084  energy(sigma->0) =      973.38957706
  exchange ACFDT corr.  =         0.00000000  see jH, gK, PRB 81, 115126

[...]

 eigenvalue-minimisations  :  6872
 total energy-change (2. order) :-0.6448959E+03  (-0.6169076E+03)
 number of electron      48.0000000 magnetization       6.0000000
 augmentation part       48.0000000 magnetization       6.0000000

[...]

  average scaling for gradient   0.7055

 average (electrostatic) potential at core
  the test charge radii are     1.0397  0.7215
  (the norm of the test charge is              1.0000)
       1 -71.3394       2 -71.3382       3 -62.8829       4 -62.8829       5 -62.8826
       6 -62.8826

 E-fermi :   4.1615     XC(G=0):  -9.3794     alpha+bet :-13.8792

 spin component 1

 k-point     1 :       0.0000    0.0000    0.0000
  band No.  band energies     occupation
      1     -57.3181      1.00000
      2     -57.2995      1.00000
      3     -31.9751      1.00000
      4     -31.9747      1.00000
      5     -31.7915      1.00000
      6     -31.7912      1.00000
      7     -31.7375      1.00000
      8     -31.6935      1.00000
      9     -16.0673      1.00000
     10     -14.8074      1.00000
     11     -13.9779      1.00000
     12     -13.9778      1.00000
     13      -2.4152      1.00000
     14      -1.9260      1.00000
     15      -1.4293      1.00000
     16      -0.3015      1.00000
     17      -0.3013      1.00000
     18       1.1001      1.00000
     19       1.1002      1.00000
     20       1.7412      1.00000
     21       3.1962      1.00000
     22       3.5067      1.00000
     23       3.5068      1.00000
     24       3.9354      1.00000
     25       7.3499      0.00000
     26       7.6807      0.00000
     27       7.9676      0.00000
     28       8.0519      0.00000
     29       8.0527      0.00000
     30       9.9749      0.00000
     31      10.4552      0.00000
     32      12.3651      0.00000

[...]

 soft charge-density along one line, spin component           1
         0         1         2         3         4         5         6         7         8         9
 total charge-density along one line

[...]

------------------------ aborting loop because EDIFF is reached ----------------------------------------

 total charge

# of ion       s       p       d       tot
    1        2.224   6.330   1.568  10.122
    2        2.229   6.319   1.593  10.142
    3        1.571   3.560   0.000   5.131
    4        1.571   3.560   0.000   5.131
    5        1.572   3.545   0.000   5.117
    6        1.572   3.545   0.000   5.117
tot         10.739  26.860   3.161  40.760

 magnetization (x)

[...]

  FORCE on cell =-STRESS in cart. coord.  units (eV):
  Direction    XX          YY          ZZ          XY          YZ          ZX
  Alpha Z   199.80534   199.80534   199.80534
  Ewald   -1394.04169 -1394.04169  -813.84031     0.00000    -0.00000     0.00000
  Hartree   299.21579   299.21581   625.42248     0.00102     0.00001    -0.00009
  E(xc)    -186.65772  -186.65772  -186.17628    -0.00000    -0.00000    -0.00000
  Local     265.64302   265.64297  -630.48134    -0.00019    -0.00008     0.00032
  n-local   -48.77812   -47.93817   -51.44911    -0.65060     0.10546     0.07517
  augment   131.57819   131.57821   132.46254    -0.00043     0.00001    -0.00009
  Kinetic   890.22831   887.68968   882.34883    -0.35838    -0.72545    -1.45059
  Fock     -156.63141  -156.48769  -158.52883    -0.07203     0.02208     0.00841
  Total      -0.41576    -0.41576    -0.43667     0.00000     0.00000     0.00000
  in kB     -10.73326   -10.73326   -11.27297     0.00000     0.00000     0.00000

 VOLUME and BASIS-vectors are now :
  energy-cutoff  :      600.00
  volume of cell :       62.06
      direct lattice vectors                 reciprocal lattice vectors
     4.587857348  0.000000000  0.000000000     0.217966672  0.000000000  0.000000000
     0.000000000  4.587857348  0.000000000     0.000000000  0.217966672  0.000000000
     0.000000000  0.000000000  2.948509955     0.000000000  0.000000000  0.339154358

[...]

 FORCES acting on ions:
    Electron-Ion                     Ewald-Force                    Non-Local-Force
   0.792E-05 -.386E-04 0.735E-05   -.114E-12 -.114E-12 -.259E-13   0.000E+00 0.000E+00 0.000E+00
   -.275E-04 0.369E-04 -.210E-04   0.853E-13 0.853E-13 -.247E-13   0.000E+00 0.000E+00 0.000E+00
   -.459E+02 0.459E+02 0.145E-03   0.493E+02 -.493E+02 0.111E-13   -.301E+01 0.301E+01 0.000E+00
   0.459E+02 -.459E+02 -.179E-03   -.493E+02 0.493E+02 0.109E-13   0.301E+01 -.301E+01 0.000E+00
   0.459E+02 0.459E+02 -.656E-04   -.493E+02 -.493E+02 0.119E-13   0.301E+01 0.301E+01 0.434E-18
   -.459E+02 -.459E+02 0.382E-04   0.493E+02 0.493E+02 0.116E-13   -.301E+01 -.301E+01 -.434E-18
   0.460E-04 0.144E-04 -.746E-04   -.711E-14 0.142E-13 -.514E-14   0.000E+00 0.000E+00 0.000E+00

 POSITION                                       TOTAL-FORCE (eV/Angst)
      2.29393      2.29393      1.47425        -0.000000     -0.000000     -0.000000
      0.00000      0.00000      0.00000        -0.000000     -0.000000     -0.000000
      0.89405      3.69381      1.47425        -0.011415      0.011415      0.000000
      3.69381      0.89405      1.47425         0.011415     -0.011415     -0.000000
      1.39988      1.39988      0.00000         0.011415      0.011415     -0.000000
      3.18798      3.18798      0.00000        -0.011415     -0.011415      0.000000
    total drift:                                0.000046      0.000014     -0.000075

  FREE ENERGIE OF THE ION-ELECTRON SYSTEM (eV)
  free  energy   TOTEN  =       -66.42013949 eV

  energy  without entropy=      -66.42013949  energy(sigma->0) =      -66.42013949

 writing wavefunctions

[...]

 d Force =-0.6028869E-04[-0.171E-03, 0.501E-04]  d Energy =-0.1401965E-02 0.134E-02
 d Force =-0.2180671E+00[-0.220E+00,-0.217E+00]  d Ewald  = 0.1200005E+02-0.122E+02

 Steepest descent step on ions:
 trial-energy change:    0.001402  1 .order    0.001518   -0.004363    0.007399
  (g-gl).g = 0.436E-02      g.g   = 0.436E-02  gl.gl    = 0.000E+00
 g(Force)  = 0.503E-04   g(Stress)= 0.431E-02 ortho     = 0.000E+00
 gamma     =   0.00000
 trial     =   1.00000
 opt step  =   0.38495  (harmonic =   0.37095) maximal distance =0.00021199
 next E    =   -66.420986   (d E  =  -0.00085)

[...]

 d Force = 0.6153781E-04[ 0.175E-04, 0.106E-03]  d Energy = 0.2470516E-02-0.241E-02
 d Force = 0.1352010E+00[ 0.135E+00, 0.136E+00]  d Ewald  =-0.7389609E+01 0.752E+01

[...]

 writing wavefunctions

[...]

 eigenvalue-minimisations  :     0
 total energy-change (2. order) : 0.5587026E-07  (-0.4644572E-05)
 number of electron      47.9999992 magnetization      -0.0000000
 augmentation part        9.3020970 magnetization      -0.0000025

[...]

--------------------------------------- Iteration      5(  19)  ---------------------------------------

 eigenvalue-minimisations  :     0
 total energy-change (2. order) :-0.1369535E-06  (-0.7659561E-06)
 number of electron      47.9999992 magnetization       0.0000000
 augmentation part        9.3020740 magnetization       0.0000009

 Free energy of the ion-electron system (eV)
  alpha Z        PSCENC =       200.47223199
  Ewald energy   TEWEN  =     -3605.83192549
  -Hartree energ DENC   =     -1222.69833008
  -exchange      EXHF   =       152.40672882
  -V(xc)+E(xc)   XCENC  =       181.26619955
  PAW double counting   =      5773.18355242    -5721.73644246
  entropy T*S    EENTRO =        -0.00000000
  eigenvalues    EBANDS =      -709.37700456
  atomic energy  EATOM  =      4885.89376647
  free energy    TOTEN  =       -66.42122684 eV

  energy without entropy =      -66.42122684  energy(sigma->0) =      -66.42122684
  exchange ACFDT corr.  =        -0.00000000  see jH, gK, PRB 81, 115126

  average scaling for gradient   0.7328

 average (electrostatic) potential at core
  the test charge radii are     1.0397  0.7215
  (the norm of the test charge is              1.0000)
       1 -71.2861       2 -71.2861       3 -62.8542       4 -62.8542       5 -62.8542
       6 -62.8542

 E-fermi :   4.2262     XC(G=0):  -9.3933     alpha+bet :-13.9255

[...]

 spin component 2

[...]

 k-point    30 :       0.4000    0.4000    0.5000
  band No.  band energies     occupation
      1     -57.2158      1.00000
      2     -57.2158      1.00000
      3     -32.1782      1.00000
      4     -32.1749      1.00000
      5     -31.7680      1.00000
      6     -31.7636      1.00000
      7     -31.7521      1.00000
      8     -31.7514      1.00000
      9     -14.7466      1.00000
     10     -14.6251      1.00000
     11     -14.3151      1.00000
     12     -14.1871      1.00000
     13      -1.4988      1.00000
     14      -1.1571      1.00000
     15      -1.0464      1.00000
     16      -0.8109      1.00000
     17      -0.0475      1.00000
     18       0.2578      1.00000
     19       0.9764      1.00000
     20       1.0219      1.00000
     21       2.4891      1.00000
     22       2.5617      1.00000
     23       3.0474      1.00000
     24       3.1771      1.00000
     25       7.8154      0.00000
     26       8.2012      0.00000
     27       8.8582      0.00000
     28       8.9956      0.00000
     29       9.0001      0.00000
     30       9.2755      0.00000
     31      11.1078      0.00000
     32      11.6717      0.00000

[...]

 soft charge-density along one line, spin component           2
         0         1         2         3         4         5         6         7         8         9
 total charge-density along one line

------------------------ aborting loop because EDIFF is reached ----------------------------------------

[...]

  FORCE on cell =-STRESS in cart. coord.  units (eV):
  Direction    XX          YY          ZZ          XY          YZ          ZX
  Alpha Z   200.47223   200.47223   200.47223
  Ewald   -1395.81276 -1395.81276  -814.20912     0.00000    -0.00000    -0.00000
  Hartree   298.66109   298.66109   625.37627     0.00000     0.00000    -0.00000
  E(xc)    -186.71992  -186.71992  -186.23606    -0.00000     0.00000     0.00000
  Local     267.71227   267.71227  -630.25128    -0.00001    -0.00000     0.00000
  n-local   -49.41240   -48.55180   -52.09441    -0.66498     0.10826     0.07394
  augment   131.18042   131.18042   132.07367     0.00000     0.00000    -0.00000
  Kinetic   891.34322   888.76892   883.49805    -0.34418    -0.73008    -1.45394
  Fock     -156.66770  -156.52051  -158.58201    -0.07464     0.02274     0.00806
  Total      -0.02680    -0.02680     0.04735     0.00000     0.00000     0.00000
  in kB      -0.69416    -0.69416     1.22641     0.00000     0.00000     0.00000

 VOLUME and BASIS-vectors are now :
  energy-cutoff  :      600.00
  volume of cell :       61.86
      direct lattice vectors                 reciprocal lattice vectors
     4.582848358  0.000000000  0.000000000     0.218204907  0.000000000  0.000000000
     0.000000000  4.582848358  0.000000000     0.000000000  0.218204907  0.000000000
     0.000000000  0.000000000  2.945128920     0.000000000  0.000000000  0.339543710

  length of vectors
     4.582848358  4.582848358  2.945128920     0.218204907  0.218204907  0.339543710

 FORCES acting on ions:
    Electron-Ion                     Ewald-Force                    Non-Local-Force
   0.253E-07 -.674E-07 0.149E-07   0.284E-13 0.284E-13 -.226E-13   0.000E+00 0.000E+00 0.000E+00
   0.765E-07 0.971E-07 -.359E-07   0.114E-12 -.853E-13 -.229E-13   0.000E+00 0.000E+00 0.000E+00
   -.461E+02 0.461E+02 0.800E-07   0.495E+02 -.495E+02 0.746E-14   -.301E+01 0.301E+01 -.173E-17
   0.461E+02 -.461E+02 -.816E-07   -.495E+02 0.495E+02 0.747E-14   0.301E+01 -.301E+01 0.173E-17
   0.461E+02 0.461E+02 -.229E-06   -.495E+02 -.495E+02 0.682E-14   0.301E+01 0.301E+01 -.130E-17
   -.461E+02 -.461E+02 0.232E-06   0.495E+02 0.495E+02 0.669E-14   -.301E+01 -.301E+01 0.130E-17
   0.112E-06 0.182E-07 -.190E-07   0.711E-14 0.000E+00 -.171E-13   0.444E-15 -.444E-15 0.000E+00

 POSITION                                       TOTAL-FORCE (eV/Angst)
      2.29142      2.29142      1.47256         0.000000      0.000000      0.000000
     -0.00000     -0.00000     -0.00000         0.000000      0.000000      0.000000
      0.89290      3.68995      1.47256         0.003425     -0.003425      0.000000
      3.68995      0.89290      1.47256        -0.003425      0.003425      0.000000
      1.39853      1.39853     -0.00000        -0.003425     -0.003425      0.000000
      3.18432      3.18432      0.00000         0.003425      0.003425      0.000000
    total drift:                                0.000000      0.000000     -0.000000

  FREE ENERGIE OF THE ION-ELECTRON SYSTEM (eV)
  free  energy   TOTEN  =       -66.42122684 eV

  energy  without entropy=      -66.42122684  energy(sigma->0) =      -66.42122684

 d Force = 0.1699967E-06[ 0.158E-06, 0.182E-06]  d Energy = 0.6074115E-06-0.437E-06
 d Force = 0.2280562E-02[ 0.228E-02, 0.228E-02]  d Ewald  =-0.1252218E+00 0.128E+00

 reached required accuracy - stopping structural energy minimisation
 writing wavefunctions

 total charge

[...]

 magnetization (x)

# of ion       s       p       d       tot
    1        0.000   0.000   0.000   0.000
    2        0.000  -0.000   0.000   0.000
    3        0.000  -0.000   0.000  -0.000
    4        0.000  -0.000   0.000  -0.000
    5        0.000  -0.000   0.000  -0.000
    6        0.000  -0.000   0.000  -0.000
tot          0.000  -0.000   0.000   0.000