 vasp.6.2.0 18Jan21 (build Mar 03 2021 13:27:41) complex

 executed on             LinuxIFC date 2022.01.24  16:34:49

 INCAR:
   SYSTEM = MgO-rocksalt
   ISMEAR = 0
   SIGMA = 0.05
   EDIFF = 1E-6
   ALGO = ALL
   ISTART = 1
   IBRION = 2
   NSW = 200
   EDIFFG = -0.01
   ISIF = 3
   ENCUT = 800
   PREC = Normal
   LASPH = .TRUE.
   LREAL = .FALSE.
   ISPIN = 1
   NELM = 60
   NELMIN = 4
   NCORE = 20
   LWAVE = .TRUE.
   LCHARG = .TRUE.
   LORBIT = 11
   LHFCALC = .TRUE.
   HFSCREEN = 0.2

 POTCAR:    PAW_PBE Mg_sv 12Apr2007
 POTCAR:    PAW_PBE O 08Apr2002
 POTCAR:    PAW_PBE Mg_sv 12Apr2007
   VRHFIN =Mg: p6s2

   TITEL  = PAW_PBE Mg_sv 12Apr2007
   POMASS =   24.305; ZVAL   =   10.000    mass and valenz
   ENMAX  =  495.223; ENMIN  =  371.417 eV

   TITEL  = PAW_PBE O 08Apr2002
   POMASS =   16.000; ZVAL   =    6.000    mass and valenz
   ENMAX  =  400.000; ENMIN  =  300.000 eV

  PAW_PBE Mg_sv 12Apr2007               :
  PAW_PBE O 08Apr2002                   :

 POSCAR: Mg4 O4
  positions in direct lattice
  velocities in cartesian coordinates
 exchange correlation table for  LEXCH =        8
   RHO(1)=    0.500       N(1)  =     2000
   RHO(2)=  100.500       N(2)  =     4000

 ion  position               nearest neighbor table
   1  0.000  0.000  0.000-   5 2.10   7 2.10   8 2.10   7 2.10   8 2.10   5 2.10
   2  0.000  0.500  0.500-   6 2.10   7 2.10   8 2.10   8 2.10   7 2.10   6 2.10
   3  0.500  0.000  0.500-   5 2.10   6 2.10   7 2.10   5 2.10   6 2.10   7 2.10
   4  0.500  0.500  0.000-   5 2.10   6 2.10   8 2.10   6 2.10   5 2.10   8 2.10
   5  0.500  0.000  0.000-   1 2.10   3 2.10   4 2.10   3 2.10   4 2.10   1 2.10
   6  0.500  0.500  0.500-   2 2.10   3 2.10   4 2.10   4 2.10   3 2.10   2 2.10
   7  0.000  0.000  0.500-   1 2.10   2 2.10   3 2.10   1 2.10   2 2.10   3 2.10
   8  0.000  0.500  0.000-   1 2.10   2 2.10   4 2.10   2 2.10   1 2.10   4 2.10

  LATTYP: Found a simple cubic cell.
 ALAT       =     4.2030371620

  Lattice vectors:

 A1 = (   4.2030371620,   0.0000000000,   0.0000000000)
 A2 = (   0.0000000000,   4.2030371620,   0.0000000000)
 A3 = (   0.0000000000,   0.0000000000,   4.2030371620)

Analysis of symmetry for initial positions (statically):
 Subroutine PRICEL returns following result:

  LATTYP: Found a face centered cubic cell.
 ALAT       =     4.2030371620

[...]

   4 primitive cells build up your supercell.

 Routine SETGRP: Setting up the symmetry group for a
 simple cubic supercell.

 Subroutine GETGRP returns: Found 48 space group operations
 (whereof 48 operations were pure point group operations)
 out of a pool of 48 trial point group operations.

The static configuration has the point symmetry O_h .

Analysis of symmetry for dynamics (positions and initial velocities):
 Subroutine PRICEL returns following result:

  LATTYP: Found a face centered cubic cell.
 ALAT       =     4.2030371620

  Lattice vectors:

 A1 = (   2.1015185810,  -2.1015185810,   0.0000000000)
 A2 = (   2.1015185810,   0.0000000000,   2.1015185810)
 A3 = (   0.0000000000,  -2.1015185810,   2.1015185810)

   4 primitive cells build up your supercell.

 Routine SETGRP: Setting up the symmetry group for a
 simple cubic supercell.

 Subroutine GETGRP returns: Found 48 space group operations
 (whereof 48 operations were pure point group operations)
 out of a pool of 48 trial point group operations.

The dynamic configuration has the point symmetry O_h .

 Subroutine INISYM returns: Found 48 space group operations
 (whereof 48 operations are pure point group operations),
 and found     4 'primitive' translations

                                     Primitive cell

  volume of cell :      18.5622

  direct lattice vectors                    reciprocal lattice vectors
     2.101518581 -2.101518581  0.000000000     0.237923188 -0.237923188 -0.237923188
     2.101518581  0.000000000  2.101518581     0.237923188  0.237923188  0.237923188
     0.000000000 -2.101518581  2.101518581    -0.237923188 -0.237923188  0.237923188

  length of vectors
     2.971996079  2.971996079  2.971996079     0.412095050  0.412095050  0.412095050

  position of ions in fractional coordinates (direct lattice)
     0.000000000  0.000000000  0.000000000
     0.500000000  0.500000000  0.500000000

  ion indices of the primitive-cell ions
   primitive index   ion index
                 1           1
                 2           5

 KPOINTS: pymatgen v2020.8.13 with grid density =

Automatic generation of k-mesh.
 Grid dimensions read from file:
 generate k-points for:    9    9    9

 Generating k-lattice:

  Cartesian coordinates                     Fractional coordinates (reciprocal lattice)
     0.026435910  0.000000000  0.000000000     0.111111111  0.000000000  0.000000000
     0.000000000  0.026435910  0.000000000     0.000000000  0.111111111  0.000000000
     0.000000000  0.000000000  0.026435910     0.000000000  0.000000000  0.111111111

  Length of vectors
     0.026435910  0.026435910  0.026435910

  Shift w.r.t. Gamma in fractional coordinates (k-lattice)
     0.000000000  0.000000000  0.000000000

 Subroutine IBZKPT returns following result:

 Found     35 irreducible k-points:

 Following reciprocal coordinates:
            Coordinates               Weight
  0.000000  0.000000  0.000000      1.000000
  0.111111  0.000000  0.000000      6.000000
  0.222222  0.000000  0.000000      6.000000
  0.333333  0.000000  0.000000      6.000000
  0.444444  0.000000  0.000000      6.000000
  0.111111  0.111111  0.000000     12.000000
  0.222222  0.111111  0.000000     24.000000
  0.333333  0.111111  0.000000     24.000000
  0.444444  0.111111  0.000000     24.000000
  0.222222  0.222222  0.000000     12.000000
  0.333333  0.222222  0.000000     24.000000
  0.444444  0.222222  0.000000     24.000000
  0.333333  0.333333  0.000000     12.000000
  0.444444  0.333333  0.000000     24.000000
  0.444444  0.444444  0.000000     12.000000
  0.111111  0.111111  0.111111      8.000000
  0.222222  0.111111  0.111111     24.000000
  0.333333  0.111111  0.111111     24.000000
  0.444444  0.111111  0.111111     24.000000
  0.222222  0.222222  0.111111     24.000000
  0.333333  0.222222  0.111111     48.000000
  0.444444  0.222222  0.111111     48.000000
  0.333333  0.333333  0.111111     24.000000
  0.444444  0.333333  0.111111     48.000000
  0.444444  0.444444  0.111111     24.000000
  0.222222  0.222222  0.222222      8.000000
  0.333333  0.222222  0.222222     24.000000
  0.444444  0.222222  0.222222     24.000000
  0.333333  0.333333  0.222222     24.000000
  0.444444  0.333333  0.222222     48.000000
  0.444444  0.444444  0.222222     24.000000
  0.333333  0.333333  0.333333      8.000000
  0.444444  0.333333  0.333333     24.000000
  0.444444  0.444444  0.333333     24.000000
  0.444444  0.444444  0.444444      8.000000

 Following cartesian coordinates:
            Coordinates               Weight
  0.000000  0.000000  0.000000      1.000000
  0.026436  0.000000  0.000000      6.000000
  0.052872  0.000000  0.000000      6.000000
  0.079308  0.000000  0.000000      6.000000
  0.105744  0.000000  0.000000      6.000000
  0.026436  0.026436  0.000000     12.000000
  0.052872  0.026436  0.000000     24.000000
  0.079308  0.026436  0.000000     24.000000
  0.105744  0.026436  0.000000     24.000000
  0.052872  0.052872  0.000000     12.000000
  0.079308  0.052872  0.000000     24.000000
  0.105744  0.052872  0.000000     24.000000
  0.079308  0.079308  0.000000     12.000000
  0.105744  0.079308  0.000000     24.000000
  0.105744  0.105744  0.000000     12.000000
  0.026436  0.026436  0.026436      8.000000
  0.052872  0.026436  0.026436     24.000000
  0.079308  0.026436  0.026436     24.000000
  0.105744  0.026436  0.026436     24.000000
  0.052872  0.052872  0.026436     24.000000
  0.079308  0.052872  0.026436     48.000000
  0.105744  0.052872  0.026436     48.000000
  0.079308  0.079308  0.026436     24.000000
  0.105744  0.079308  0.026436     48.000000
  0.105744  0.105744  0.026436     24.000000
  0.052872  0.052872  0.052872      8.000000
  0.079308  0.052872  0.052872     24.000000
  0.105744  0.052872  0.052872     24.000000
  0.079308  0.079308  0.052872     24.000000
  0.105744  0.079308  0.052872     48.000000
  0.105744  0.105744  0.052872     24.000000
  0.079308  0.079308  0.079308      8.000000
  0.105744  0.079308  0.079308     24.000000
  0.105744  0.105744  0.079308     24.000000
  0.105744  0.105744  0.105744      8.000000

 Subroutine IBZKPT_HF returns following result:

 Found    729 k-points in 1st BZ
 the following    729 k-points will be used (e.g. in the exchange kernel)
 Following reciprocal coordinates:   # in IRBZ
  0.000000  0.000000  0.000000    0.00137174   1 t-inv F
  0.111111  0.000000  0.000000    0.00137174   2 t-inv F
  0.222222  0.000000  0.000000    0.00137174   3 t-inv F
  0.333333  0.000000  0.000000    0.00137174   4 t-inv F
  0.444444  0.000000  0.000000    0.00137174   5 t-inv F
  0.111111  0.111111  0.000000    0.00137174   6 t-inv F
  0.222222  0.111111  0.000000    0.00137174   7 t-inv F
  0.333333  0.111111  0.000000    0.00137174   8 t-inv F
  0.444444  0.111111  0.000000    0.00137174   9 t-inv F
  0.222222  0.222222  0.000000    0.00137174  10 t-inv F
  0.333333  0.222222  0.000000    0.00137174  11 t-inv F
  0.444444  0.222222  0.000000    0.00137174  12 t-inv F
  0.333333  0.333333  0.000000    0.00137174  13 t-inv F
  0.444444  0.333333  0.000000    0.00137174  14 t-inv F
  0.444444  0.444444  0.000000    0.00137174  15 t-inv F
  0.111111  0.111111  0.111111    0.00137174  16 t-inv F
  0.222222  0.111111  0.111111    0.00137174  17 t-inv F
  0.333333  0.111111  0.111111    0.00137174  18 t-inv F
  0.444444  0.111111  0.111111    0.00137174  19 t-inv F
  0.222222  0.222222  0.111111    0.00137174  20 t-inv F
  0.333333  0.222222  0.111111    0.00137174  21 t-inv F
  0.444444  0.222222  0.111111    0.00137174  22 t-inv F
  0.333333  0.333333  0.111111    0.00137174  23 t-inv F
  0.444444  0.333333  0.111111    0.00137174  24 t-inv F
  0.444444  0.444444  0.111111    0.00137174  25 t-inv F
  0.222222  0.222222  0.222222    0.00137174  26 t-inv F
  0.333333  0.222222  0.222222    0.00137174  27 t-inv F
  0.444444  0.222222  0.222222    0.00137174  28 t-inv F
  0.333333  0.333333  0.222222    0.00137174  29 t-inv F
  0.444444  0.333333  0.222222    0.00137174  30 t-inv F
  0.444444  0.444444  0.222222    0.00137174  31 t-inv F
  0.333333  0.333333  0.333333    0.00137174  32 t-inv F
  0.444444  0.333333  0.333333    0.00137174  33 t-inv F
  0.444444  0.444444  0.333333    0.00137174  34 t-inv F
  0.444444  0.444444  0.444444    0.00137174  35 t-inv F
 -0.111111  0.000000  0.000000    0.00137174   2 t-inv F
  0.000000  0.111111  0.000000    0.00137174   2 t-inv F
  0.000000 -0.111111  0.000000    0.00137174   2 t-inv F
  0.000000  0.000000  0.111111    0.00137174   2 t-inv F
  0.000000  0.000000 -0.111111    0.00137174   2 t-inv F
 -0.222222  0.000000  0.000000    0.00137174   3 t-inv F
  0.000000  0.222222  0.000000    0.00137174   3 t-inv F
  0.000000 -0.222222  0.000000    0.00137174   3 t-inv F
  0.000000  0.000000  0.222222    0.00137174   3 t-inv F
[...]
   0.05287182  0.05287182  0.05287182       0.011
   0.07930773  0.05287182  0.05287182       0.033
   0.10574364  0.05287182  0.05287182       0.033
   0.07930773  0.07930773  0.05287182       0.033
   0.10574364  0.07930773  0.05287182       0.066
   0.10574364  0.10574364  0.05287182       0.033
   0.07930773  0.07930773  0.07930773       0.011
   0.10574364  0.07930773  0.07930773       0.033
   0.10574364  0.10574364  0.07930773       0.033
   0.10574364  0.10574364  0.10574364       0.011

 k-points in reciprocal lattice and weights: pymatgen v2020.8.13 with grid density =
   0.00000000  0.00000000  0.00000000       0.001
   0.11111111  0.00000000  0.00000000       0.008
   0.22222222  0.00000000  0.00000000       0.008
   0.33333333  0.00000000  0.00000000       0.008
   0.44444444  0.00000000  0.00000000       0.008
   0.11111111  0.11111111  0.00000000       0.016
   0.22222222  0.11111111  0.00000000       0.033
   0.33333333  0.11111111  0.00000000       0.033
   0.44444444  0.11111111  0.00000000       0.033
   0.22222222  0.22222222  0.00000000       0.016
   0.33333333  0.22222222  0.00000000       0.033
   0.44444444  0.22222222  0.00000000       0.033
   0.33333333  0.33333333  0.00000000       0.016
   0.44444444  0.33333333  0.00000000       0.033
   0.44444444  0.44444444  0.00000000       0.016
   0.11111111  0.11111111  0.11111111       0.011
   0.22222222  0.11111111  0.11111111       0.033
   0.33333333  0.11111111  0.11111111       0.033
   0.44444444  0.11111111  0.11111111       0.033
   0.22222222  0.22222222  0.11111111       0.033
   0.33333333  0.22222222  0.11111111       0.066
   0.44444444  0.22222222  0.11111111       0.066
   0.33333333  0.33333333  0.11111111       0.033
   0.44444444  0.33333333  0.11111111       0.066
   0.44444444  0.44444444  0.11111111       0.033
   0.22222222  0.22222222  0.22222222       0.011
   0.33333333  0.22222222  0.22222222       0.033
   0.44444444  0.22222222  0.22222222       0.033
   0.33333333  0.33333333  0.22222222       0.033
   0.44444444  0.33333333  0.22222222       0.066
   0.44444444  0.44444444  0.22222222       0.033
   0.33333333  0.33333333  0.33333333       0.011
   0.44444444  0.33333333  0.33333333       0.033
   0.44444444  0.44444444  0.33333333       0.033
   0.44444444  0.44444444  0.44444444       0.011

 position of ions in fractional coordinates (direct lattice)
   0.00000000  0.00000000  0.00000000
   0.00000000  0.50000000  0.50000000
   0.50000000  0.00000000  0.50000000
   0.50000000  0.50000000  0.00000000
   0.50000000  0.00000000  0.00000000
   0.50000000  0.50000000  0.50000000
   0.00000000  0.00000000  0.50000000
   0.00000000  0.50000000  0.00000000

 position of ions in cartesian coordinates  (Angst):
   0.00000000  0.00000000  0.00000000
   0.00000000  2.10151858  2.10151858
   2.10151858  0.00000000  2.10151858
   2.10151858  2.10151858  0.00000000
   2.10151858  0.00000000  0.00000000
   2.10151858  2.10151858  2.10151858
   0.00000000  0.00000000  2.10151858
   0.00000000  2.10151858  0.00000000

 k-point   1 :   0.0000 0.0000 0.0000  plane waves:    3791
 k-point   2 :   0.1111 0.0000 0.0000  plane waves:    3823
 k-point   3 :   0.2222 0.0000 0.0000  plane waves:    3819
 k-point   4 :   0.3333 0.0000 0.0000  plane waves:    3824
 k-point   5 :   0.4444 0.0000 0.0000  plane waves:    3828
 k-point   6 :   0.1111 0.1111 0.0000  plane waves:    3827
 k-point   7 :   0.2222 0.1111 0.0000  plane waves:    3826
 k-point   8 :   0.3333 0.1111 0.0000  plane waves:    3816
 k-point   9 :   0.4444 0.1111 0.0000  plane waves:    3821
 k-point  10 :   0.2222 0.2222 0.0000  plane waves:    3806
 k-point  11 :   0.3333 0.2222 0.0000  plane waves:    3815
 k-point  12 :   0.4444 0.2222 0.0000  plane waves:    3812
 k-point  13 :   0.3333 0.3333 0.0000  plane waves:    3820
 k-point  14 :   0.4444 0.3333 0.0000  plane waves:    3808
 k-point  15 :   0.4444 0.4444 0.0000  plane waves:    3832
 k-point  16 :   0.1111 0.1111 0.1111  plane waves:    3827
 k-point  17 :   0.2222 0.1111 0.1111  plane waves:    3814
 k-point  18 :   0.3333 0.1111 0.1111  plane waves:    3809
 k-point  19 :   0.4444 0.1111 0.1111  plane waves:    3813
 k-point  20 :   0.2222 0.2222 0.1111  plane waves:    3807
 k-point  21 :   0.3333 0.2222 0.1111  plane waves:    3824
 k-point  22 :   0.4444 0.2222 0.1111  plane waves:    3817
 k-point  23 :   0.3333 0.3333 0.1111  plane waves:    3817
 k-point  24 :   0.4444 0.3333 0.1111  plane waves:    3813
 k-point  25 :   0.4444 0.4444 0.1111  plane waves:    3810
 k-point  26 :   0.2222 0.2222 0.2222  plane waves:    3818
 k-point  27 :   0.3333 0.2222 0.2222  plane waves:    3820
 k-point  28 :   0.4444 0.2222 0.2222  plane waves:    3810
 k-point  29 :   0.3333 0.3333 0.2222  plane waves:    3815
 k-point  30 :   0.4444 0.3333 0.2222  plane waves:    3812
 k-point  31 :   0.4444 0.4444 0.2222  plane waves:    3806
 k-point  32 :   0.3333 0.3333 0.3333  plane waves:    3782
 k-point  33 :   0.4444 0.3333 0.3333  plane waves:    3810
 k-point  34 :   0.4444 0.4444 0.3333  plane waves:    3815
 k-point  35 :   0.4444 0.4444 0.4444  plane waves:    3831

 maximum and minimum number of plane-waves per node :       212      171

 maximum number of plane-waves:      3832
 maximum index in each direction:
   IXMAX=    9   IYMAX=    9   IZMAX=    9
   IXMIN=  -10   IYMIN=  -10   IZMIN=  -10

 parallel 3D FFT for wavefunctions:
    minimum data exchange during FFTs selected (reduces bandwidth)
 parallel 3D FFT for charge:
    minimum data exchange during FFTs selected (reduces bandwidth)

 Radii for the augmentation spheres in the non-local exchange
 for species   1 augmentation radius   0.912 (default was   0.730)
       energy cutoff for augmentation   3200.0
 for species   2 augmentation radius   0.902 (default was   0.722)
       energy cutoff for augmentation   3200.0

 real space projection operators:
  max/ min on nodes  :        101.94         29.16

 Maximum index for augmentation-charges in exchange          137
  SETUP_FOCK is finished

 Broyden mixing: mesh for mixing (old mesh)
   NGX = 19   NGY = 19   NGZ = 19
  (NGX  = 60   NGY  = 60   NGZ  = 60)
  gives a total of   6859 points

 charge density for first step will be calculated from the start-wavefunctions

 Maximum index for augmentation-charges          341 (set IRDMAX)

 initial charge from wavefunction
 First call to EWALD:  gamma=   0.422
 Maximum number of real-space cells 3x 3x 3
 Maximum number of reciprocal cells 3x 3x 3

--------------------------------------- Iteration      1(   1)  ---------------------------------------

 eigenvalue-minimisations  :     0
 total energy-change (2. order) :-0.5698517E+02  (-0.1842868E-06)
 number of electron      64.0000107 magnetization
 augmentation part       17.5638275 magnetization

 Free energy of the ion-electron system (eV)
  alpha Z        PSCENC =       329.93054962
  Ewald energy   TEWEN  =     -5168.59203891
  -Hartree energ DENC   =     -2320.23822909
  -exchange      EXHF   =       250.16554914
  -V(xc)+E(xc)   XCENC  =       290.36671726
  PAW double counting   =      6441.13731151    -6818.39992106
  entropy T*S    EENTRO =        -0.00000000
  eigenvalues    EBANDS =     -1690.46285717
  atomic energy  EATOM  =      8629.10775108
  free energy    TOTEN  =       -56.98516762 eV

  energy without entropy =      -56.98516762  energy(sigma->0) =      -56.98516762
  exchange ACFDT corr.  =         0.00000000  see jH, gK, PRB 81, 115126

[...]

--------------------------------------- Iteration      1(   4)  ---------------------------------------

 eigenvalue-minimisations  :     0
 total energy-change (2. order) :-0.2548768E-07  (-0.9732736E-08)
 number of electron      64.0000107 magnetization
 augmentation part       17.5639278 magnetization

 Free energy of the ion-electron system (eV)
  alpha Z        PSCENC =       329.93054962
  Ewald energy   TEWEN  =     -5168.59203891
  -Hartree energ DENC   =     -2320.23644896
  -exchange      EXHF   =       250.16547479
  -V(xc)+E(xc)   XCENC  =       290.36664639
  PAW double counting   =      6441.16982469    -6818.43469521
  entropy T*S    EENTRO =        -0.00000000
  eigenvalues    EBANDS =     -1690.46224042
  atomic energy  EATOM  =      8629.10775108
  free energy    TOTEN  =       -56.98516792 eV

  energy without entropy =      -56.98516792  energy(sigma->0) =      -56.98516792
  exchange ACFDT corr.  =         0.00000000  see jH, gK, PRB 81, 115126

  average scaling for gradient   0.8776

 average (electrostatic) potential at core
  the test charge radii are     0.7298  0.7215
  (the norm of the test charge is              1.0000)
       1 -34.7897       2 -34.7897       3 -34.7897       4 -34.7897       5 -63.6501
       6 -63.6501       7 -63.6501       8 -63.6501

 E-fermi :   2.1069     XC(G=0):  -9.3358     alpha+bet :-12.8706

 Fermi energy:         2.1068933931

 k-point     1 :       0.0000    0.0000    0.0000
  band No.  band energies     occupation
      1     -74.8695      2.00000
      2     -74.8575      2.00000
      3     -74.8575      2.00000
      4     -74.8575      2.00000
      5     -39.8176      2.00000
      6     -39.8176      2.00000
      7     -39.8176      2.00000
      8     -39.7716      2.00000
      9     -39.7716      2.00000
     10     -39.7716      2.00000
     11     -39.7716      2.00000
     12     -39.7716      2.00000
     13     -39.7716      2.00000
     14     -39.7420      2.00000
     15     -39.7420      2.00000
     16     -39.7420      2.00000
     17     -17.1487      2.00000
     18     -15.5232      2.00000
     19     -15.5232      2.00000
     20     -15.5232      2.00000
     21      -2.6865      2.00000
     22      -2.6865      2.00000
     23      -2.6865      2.00000
     24       0.2254      2.00000
     25       0.2254      2.00000
     26       0.2254      2.00000
     27       0.2254      2.00000
     28       0.2254      2.00000
     29       0.2254      2.00000
     30       1.6952      2.00000
     31       1.6952      2.00000
     32       1.6952      2.00000
     33       8.2649      0.00000
     34      12.5782      0.00000
     35      12.5782      0.00000
     36      12.5782      0.00000
     37      13.7365      0.00000
     38      13.7365      0.00000
     39      13.7365      0.00000
     40      17.1714      0.00000
     41      17.1714      0.00000
     42      17.1714      0.00000

[...]

 k-point    35 :       0.4444    0.4444    0.4444
  band No.  band energies     occupation
      1     -74.8611      2.00000
      2     -74.8606      2.00000
      3     -74.8606      2.00000
      4     -74.8606      2.00000
      5     -39.8306      2.00000
      6     -39.8306      2.00000
      7     -39.8306      2.00000
      8     -39.8293      2.00000
      9     -39.7516      2.00000
     10     -39.7516      2.00000
     11     -39.7516      2.00000
     12     -39.7507      2.00000
     13     -39.7507      2.00000
     14     -39.7507      2.00000
     15     -39.7498      2.00000
     16     -39.7498      2.00000
     17     -15.8048      2.00000
     18     -15.7492      2.00000
     19     -15.7492      2.00000
     20     -15.7492      2.00000
     21      -3.1942      2.00000
     22      -3.1942      2.00000
     23      -3.1942      2.00000
     24      -3.1316      2.00000
     25       0.8548      2.00000
     26       0.8548      2.00000
     27       0.8548      2.00000
     28       0.9445      2.00000
     29       0.9445      2.00000
     30       0.9445      2.00000
     31       0.9894      2.00000
     32       0.9894      2.00000
     33      11.4530      0.00000
     34      11.6165      0.00000
     35      11.6165      0.00000
     36      11.6165      0.00000
     37      16.6066      0.00000
     38      16.6433      0.00000
     39      16.6433      0.00000
     40      16.6433      0.00000
     41      19.8382      0.00000
     42      19.9103      0.00000

 soft charge-density along one line, spin component           1
         0         1         2         3         4         5         6         7         8         9
 total charge-density along one line

------------------------ aborting loop because EDIFF is reached ----------------------------------------

 total charge

# of ion       s       p       d       tot
    1        2.064   6.010   0.040   8.114
    2        2.064   6.010   0.040   8.114
    3        2.064   6.010   0.040   8.114
    4        2.064   6.010   0.040   8.114
    5        1.543   3.593   0.000   5.136
    6        1.543   3.593   0.000   5.136
    7        1.543   3.593   0.000   5.136
    8        1.543   3.593   0.000   5.136
tot         14.427  38.414   0.158  52.999

  FORCE on cell =-STRESS in cart. coord.  units (eV):
  Direction    XX          YY          ZZ          XY          YZ          ZX
  Alpha Z   329.93055   329.93055   329.93055
  Ewald   -1722.86651 -1722.86651 -1722.86651     0.00000     0.00000     0.00000
  Hartree   773.41198   773.41198   773.41198     0.00000     0.00000    -0.00000
  E(xc)    -303.22480  -303.22480  -303.22480    -0.00000    -0.00000     0.00000
  Local     273.99539   273.99539   273.99539    -0.00000    -0.00000    -0.00000
  n-local  -556.13320  -549.46038  -542.65606     0.39867     0.35146     0.24653
  augment    83.72154    83.72154    83.72154     0.00000     0.00000    -0.00000
  Kinetic  1374.44500  1375.48266  1372.30875    -3.25552    -2.96957    -2.09381
  Fock     -259.06630  -259.67421  -260.17153     0.06227     0.05253     0.03857
  Total      -0.00694    -0.00694    -0.00694     0.00000     0.00000    -0.00000
  in kB      -0.14986    -0.14986    -0.14986     0.00000     0.00000    -0.00000

 VOLUME and BASIS-vectors are now :
  energy-cutoff  :      800.00
  volume of cell :       74.25
      direct lattice vectors                 reciprocal lattice vectors
     4.203037162  0.000000000  0.000000000     0.237923188  0.000000000  0.000000000
     0.000000000  4.203037162  0.000000000     0.000000000  0.237923188  0.000000000
     0.000000000  0.000000000  4.203037162     0.000000000  0.000000000  0.237923188

  length of vectors
     4.203037162  4.203037162  4.203037162     0.237923188  0.237923188  0.237923188

 FORCES acting on ions:
    Electron-Ion                     Ewald-Force                    Non-Local-Force
   -.104E-06 0.104E-06 -.191E-06   0.795E-14 -.810E-14 -.103E-14   -.413E-21 -.350E-21 -.724E-21
   -.444E-08 0.423E-08 0.134E-07   0.671E-14 0.239E-13 0.505E-14   0.198E-20 -.858E-21 0.167E-20
   0.726E-07 0.218E-07 0.542E-07   0.110E-13 -.366E-14 0.511E-14   -.147E-20 0.107E-20 -.160E-20
   0.104E-07 -.250E-08 -.329E-08   0.980E-14 0.283E-13 -.109E-13   0.386E-21 -.149E-20 -.815E-21
   -.238E-08 -.519E-08 -.147E-07   -.425E-14 -.116E-13 -.758E-15   0.755E-22 -.820E-22 0.944E-22
   -.476E-09 0.934E-08 -.353E-08   -.423E-14 -.101E-13 0.454E-14   -.472E-21 0.117E-22 -.369E-21
   0.113E-07 -.379E-08 -.144E-07   -.129E-13 -.106E-13 0.449E-14   -.108E-21 0.458E-22 -.290E-21
   0.620E-08 0.246E-08 0.433E-08   -.129E-13 -.911E-14 -.347E-14   0.192E-21 0.141E-21 0.199E-21
   0.311E-07 0.915E-07 -.103E-06   0.115E-14 -.101E-14 0.306E-14   0.175E-21 -.151E-20 -.183E-20

 POSITION                                       TOTAL-FORCE (eV/Angst)
      0.00000      0.00000      0.00000         0.000000     -0.000000      0.000000
      0.00000      2.10152      2.10152        -0.000000      0.000000     -0.000000
      2.10152      0.00000      2.10152        -0.000000     -0.000000      0.000000
      2.10152      2.10152      0.00000         0.000000      0.000000      0.000000
      2.10152      0.00000      0.00000        -0.000000     -0.000000     -0.000000
      2.10152      2.10152      2.10152        -0.000000     -0.000000     -0.000000
      0.00000      0.00000      2.10152         0.000000      0.000000     -0.000000
      0.00000      2.10152      0.00000        -0.000000     -0.000000     -0.000000
    total drift:                                0.000000      0.000000     -0.000000

  FREE ENERGIE OF THE ION-ELECTRON SYSTEM (eV)
  free  energy   TOTEN  =       -56.98516792 eV

  energy  without entropy=      -56.98516792  energy(sigma->0) =      -56.98516792

 reached required accuracy - stopping structural energy minimisation
 writing wavefunctions

 total charge

# of ion       s       p       d       tot
    1        2.064   6.010   0.040   8.114
    2        2.064   6.010   0.040   8.114
    3        2.064   6.010   0.040   8.114
    4        2.064   6.010   0.040   8.114
    5        1.543   3.593   0.000   5.136
    6        1.543   3.593   0.000   5.136
    7        1.543   3.593   0.000   5.136
    8        1.543   3.593   0.000   5.136
tot         14.427  38.414   0.158  52.999