 vasp.6.2.0 18Jan21 (build Mar 03 2021 13:27:41) complex

 executed on             LinuxIFC date 2021.07.15  04:11:24

 INCAR:
   SYSTEM = TiO2-rutile
   ISMEAR = 0
   SIGMA = 0.05
   EDIFF = 1E-5
   ALGO = Fast
   ISTART = 1
   GGA = PS
   ISYM = 0
   IBRION = -1
   NSW = 0
   EDIFFG = -0.01
   ENCUT = 500
   PREC = Accurate
   LASPH = .TRUE.
   LREAL = Auto
   ISPIN = 1
   NELM = 500
   NELMIN = 4
   NCORE = 20
   LWAVE = .FALSE.
   LCHARG = .FALSE.
   LORBIT = 11

 POTCAR:    PAW_PBE Ti_sv 26Sep2005
 POTCAR:    PAW_PBE O 08Apr2002
 POTCAR:    PAW_PBE Ti_sv 26Sep2005
   VRHFIN =Ti: 3p4s3d

   TITEL  = PAW_PBE Ti_sv 26Sep2005
   POMASS =   47.880; ZVAL   =   12.000    mass and valenz
   ENMAX  =  274.610; ENMIN  =  205.957 eV

   TITEL  = PAW_PBE O 08Apr2002
   POMASS =   16.000; ZVAL   =    6.000    mass and valenz
   ENMAX  =  400.000; ENMIN  =  300.000 eV

 Optimization of the real space projectors (new method)

 maximal supplied QI-value         = 16.25
 optimisation between [QCUT,QGAM] = [ 11.38, 22.75] = [ 36.24,144.96] Ry
 Optimized for a Real-space Cutoff    1.27 Angstroem

   l    n(q)    QCUT    max X(q) W(low)/X(q) W(high)/X(q)  e(spline)
   0      9    11.376    12.277    0.53E-04    0.25E-04    0.25E-07
   0      9    11.376    11.419    0.89E-04    0.67E-05    0.35E-07
   1      8    11.376     4.010    0.13E-03    0.11E-03    0.29E-07
   1      8    11.376     6.182    0.94E-04    0.19E-03    0.11E-06
   2      8    11.376    47.177    0.13E-03    0.88E-03    0.24E-06
   2      8    11.376    42.437    0.13E-03    0.86E-03    0.23E-06
 Optimization of the real space projectors (new method)

 maximal supplied QI-value         = 24.76
 optimisation between [QCUT,QGAM] = [ 11.39, 22.77] = [ 36.31,145.25] Ry
 Optimized for a Real-space Cutoff    1.10 Angstroem

   l    n(q)    QCUT    max X(q) W(low)/X(q) W(high)/X(q)  e(spline)
   0      7    11.387    20.381    0.22E-03    0.48E-03    0.18E-06
   0      7    11.387    15.268    0.22E-03    0.52E-03    0.19E-06
   1      7    11.387     5.964    0.22E-03    0.73E-03    0.24E-06
   1      7    11.387     5.382    0.19E-03    0.60E-03    0.21E-06
|               ----> ADVICE to this user running VASP <----                  |
|     You enforced a specific xc type in the INCAR file but a different       |
|     type was found in the POTCAR file.                                      |
|     I HOPE YOU KNOW WHAT YOU ARE DOING!                                     |

  PAW_PBE Ti_sv 26Sep2005               :
  PAW_PBE O 08Apr2002                   :

 POSCAR: Ti  O
  positions in direct lattice
  velocities in cartesian coordinates
 exchange correlation table for  LEXCH =       14
   RHO(1)=    0.500       N(1)  =     2000
   RHO(2)=  100.500       N(2)  =     4000

 ion  position               nearest neighbor table
   1  0.250  0.125  0.109-  67 1.94  68 1.94  83 1.94  84 1.94  65 1.98  66 1.98
   2  0.000  0.000  0.109-  65 1.94 113 1.94 130 1.94 177 1.94  80 1.98  71 1.98
   3  0.000  0.125  0.359-  71 1.94  72 1.94  87 1.94  88 1.94  70 1.98 133 1.98
   4  0.250  0.000  0.359-  69 1.94  70 1.94 117 1.94 118 1.94  68 1.98  75 1.98
   5  0.250  0.125  0.609-  75 1.94  76 1.94  91 1.94  92 1.94  73 1.98  74 1.98
   6  0.000  0.000  0.609-  73 1.94 121 1.94 138 1.94 185 1.94  79 1.98  72 1.98
   7  0.000  0.125  0.859-  79 1.94  80 1.94  95 1.94  96 1.94  78 1.98 141 1.98
   8  0.250  0.000  0.859-  77 1.94  78 1.94 125 1.94 126 1.94  67 1.98  76 1.98
   9  0.250  0.375  0.109-  83 1.94  84 1.94  99 1.94 100 1.94  81 1.98  82 1.98
  10  0.000  0.250  0.109-  65 1.94  81 1.94 130 1.94 146 1.94  87 1.98  96 1.98
  11  0.000  0.375  0.359-  87 1.94  88 1.94 103 1.94 104 1.94  86 1.98 149 1.98
  12  0.250  0.250  0.359-  69 1.94  70 1.94  85 1.94  86 1.94  84 1.98  91 1.98
  13  0.250  0.375  0.609-  91 1.94  92 1.94 107 1.94 108 1.94  89 1.98  90 1.98
  14  0.000  0.250  0.609-  73 1.94  89 1.94 138 1.94 154 1.94  88 1.98  95 1.98
  15  0.000  0.375  0.859-  95 1.94  96 1.94 111 1.94 112 1.94  94 1.98 157 1.98
  16  0.250  0.250  0.859-  77 1.94  78 1.94  93 1.94  94 1.94  83 1.98  92 1.98
  17  0.250  0.625  0.109-  99 1.94 100 1.94 115 1.94 116 1.94  97 1.98  98 1.98
  18  0.000  0.500  0.109-  81 1.94  97 1.94 146 1.94 162 1.94 103 1.98 112 1.98
  19  0.000  0.625  0.359- 103 1.94 104 1.94 119 1.94 120 1.94 102 1.98 165 1.98
  20  0.250  0.500  0.359-  85 1.94  86 1.94 101 1.94 102 1.94 100 1.98 107 1.98
  21  0.250  0.625  0.609- 107 1.94 108 1.94 123 1.94 124 1.94 105 1.98 106 1.98
  22  0.000  0.500  0.609-  89 1.94 105 1.94 154 1.94 169 1.94 104 1.98 111 1.98
  23  0.000  0.625  0.859- 111 1.94 112 1.94 127 1.94 128 1.94 110 1.98 172 1.98
  24  0.250  0.500  0.859-  93 1.94  94 1.94 109 1.94 110 1.94  99 1.98 108 1.98
  25  0.250  0.875  0.109-  67 1.94  68 1.94 115 1.94 116 1.94 113 1.98 114 1.98
  26  0.000  0.750  0.109-  97 1.94 113 1.94 162 1.94 177 1.94 119 1.98 128 1.98
  27  0.000  0.875  0.359-  71 1.94  72 1.94 119 1.94 120 1.94 118 1.98 180 1.98
  28  0.250  0.750  0.359- 101 1.94 102 1.94 117 1.94 118 1.94 116 1.98 123 1.98
  29  0.250  0.875  0.609-  75 1.94  76 1.94 123 1.94 124 1.94 121 1.98 122 1.98
  30  0.000  0.750  0.609- 105 1.94 121 1.94 169 1.94 185 1.94 120 1.98 127 1.98
  31  0.000  0.875  0.859-  79 1.94  80 1.94 127 1.94 128 1.94 126 1.98 188 1.98
  32  0.250  0.750  0.859- 109 1.94 110 1.94 125 1.94 126 1.94 115 1.98 124 1.98
  33  0.750  0.125  0.109- 131 1.94 132 1.94 147 1.94 148 1.94 129 1.98 130 1.98
  34  0.500  0.000  0.109-  66 1.94 114 1.94 129 1.94 176 1.94 144 1.98 135 1.98
  35  0.500  0.125  0.359- 135 1.94 136 1.94 151 1.94 152 1.94  69 1.98 134 1.98
  36  0.750  0.000  0.359- 133 1.94 134 1.94 180 1.94 181 1.94 132 1.98 139 1.98
  37  0.750  0.125  0.609- 139 1.94 140 1.94 155 1.94 156 1.94 137 1.98 138 1.98
  38  0.500  0.000  0.609-  74 1.94 122 1.94 137 1.94 184 1.94 143 1.98 136 1.98
  39  0.500  0.125  0.859- 143 1.94 144 1.94 159 1.94 160 1.94  77 1.98 142 1.98
  40  0.750  0.000  0.859- 141 1.94 142 1.94 188 1.94 189 1.94 131 1.98 140 1.98
  41  0.750  0.375  0.109- 147 1.94 148 1.94 163 1.94 164 1.94 145 1.98 146 1.98
  42  0.500  0.250  0.109-  66 1.94  82 1.94 129 1.94 145 1.94 151 1.98 160 1.98
  43  0.500  0.375  0.359- 151 1.94 152 1.94 167 1.94 150 1.98  85 1.98
  44  0.750  0.250  0.359- 133 1.94 134 1.94 149 1.94 150 1.94 148 1.98 155 1.98
  45  0.750  0.375  0.609- 155 1.94 156 1.94 170 1.94 171 1.94 153 1.98 154 1.98
  46  0.500  0.250  0.609-  74 1.94  90 1.94 137 1.94 153 1.94 152 1.98 159 1.98
  47  0.500  0.375  0.859- 159 1.94 160 1.94 174 1.94 175 1.94  93 1.98 158 1.98
  48  0.750  0.250  0.859- 141 1.94 142 1.94 157 1.94 158 1.94 147 1.98 156 1.98
  49  0.750  0.625  0.109- 163 1.94 164 1.94 178 1.94 179 1.94 161 1.98 162 1.98
  50  0.500  0.500  0.109-  82 1.94  98 1.94 145 1.94 161 1.94 167 1.98 175 1.98
  51  0.500  0.625  0.359- 167 1.94 182 1.94 183 1.94 166 1.98 101 1.98
  52  0.750  0.500  0.359- 149 1.94 150 1.94 165 1.94 166 1.94 164 1.98 170 1.98
  53  0.750  0.625  0.609- 170 1.94 171 1.94 186 1.94 187 1.94 168 1.98 169 1.98
  54  0.500  0.500  0.609-  90 1.94 106 1.94 153 1.94 168 1.94 174 1.98
  55  0.500  0.625  0.859- 174 1.94 175 1.94 190 1.94 191 1.94 109 1.98 173 1.98
  56  0.750  0.500  0.859- 157 1.94 158 1.94 172 1.94 173 1.94 163 1.98 171 1.98
  57  0.750  0.875  0.109- 131 1.94 132 1.94 178 1.94 179 1.94 176 1.98 177 1.98
  58  0.500  0.750  0.109-  98 1.94 114 1.94 161 1.94 176 1.94 182 1.98 191 1.98
  59  0.500  0.875  0.359- 135 1.94 136 1.94 182 1.94 183 1.94 117 1.98 181 1.98
  60  0.750  0.750  0.359- 165 1.94 166 1.94 180 1.94 181 1.94 179 1.98 186 1.98
[...]
 177  0.902  0.875  0.109-   2 1.94  26 1.94  57 1.98
 178  0.750  0.750  0.011-  49 1.94  57 1.94  64 1.98
 179  0.750  0.750  0.207-  49 1.94  57 1.94  60 1.98
 180  0.848  0.875  0.359-  36 1.94  60 1.94  27 1.98
 181  0.652  0.875  0.359-  36 1.94  60 1.94  59 1.98
 182  0.500  0.750  0.261-  51 1.94  59 1.94  58 1.98
 183  0.500  0.750  0.457-  51 1.94  59 1.94  62 1.98
 184  0.598  0.875  0.609-  38 1.94  62 1.94  61 1.98
 185  0.902  0.875  0.609-   6 1.94  30 1.94  61 1.98
 186  0.750  0.750  0.511-  53 1.94  61 1.94  60 1.98
 187  0.750  0.750  0.707-  53 1.94  61 1.94  64 1.98
 188  0.848  0.875  0.859-  40 1.94  64 1.94  31 1.98
 189  0.652  0.875  0.859-  40 1.94  64 1.94  63 1.98
 190  0.500  0.750  0.761-  55 1.94  63 1.94  62 1.98
 191  0.500  0.750  0.957-  55 1.94  63 1.94  58 1.98

IMPORTANT INFORMATION: All symmetrisations will be switched off!
NOSYMM: (Re-)initialisation of all symmetry stuff for point group C_1.

                                     Primitive cell

  volume of cell :    1987.5462

  direct lattice vectors                    reciprocal lattice vectors
    12.995699245  0.000000000  0.000000000     0.076948534  0.000000000  0.000000000
     0.000000000 11.768413717  0.000000000     0.000000000  0.084973219  0.000000000
     0.000000000  0.000000000 12.995699245     0.000000000  0.000000000  0.076948534

  length of vectors
    12.995699245 11.768413717 12.995699245     0.076948534  0.084973219  0.076948534

  position of ions in fractional coordinates (direct lattice)
     0.250000000  0.125000000  0.108821660
     0.000000000  0.000000000  0.108821660
     0.000000000  0.125000000  0.358821660
     0.250000000  0.000000000  0.358821660
     0.250000000  0.125000000  0.608821660
     0.000000000  0.000000000  0.608821660
     0.000000000  0.125000000  0.858821660
     0.250000000  0.000000000  0.858821660
     0.250000000  0.375000000  0.108821660
     0.000000000  0.250000000  0.108821660
     0.000000000  0.375000000  0.358821660
     0.250000000  0.250000000  0.358821660
     0.250000000  0.375000000  0.608821660
     0.000000000  0.250000000  0.608821660
     0.000000000  0.375000000  0.858821660
     0.250000000  0.250000000  0.858821660
     0.250000000  0.625000000  0.108821660
     0.000000000  0.500000000  0.108821660
     0.000000000  0.625000000  0.358821660
     0.250000000  0.500000000  0.358821660
     0.250000000  0.625000000  0.608821660
     0.000000000  0.500000000  0.608821660
     0.000000000  0.625000000  0.858821660
     0.250000000  0.500000000  0.858821660
     0.250000000  0.875000000  0.108821660
     0.000000000  0.750000000  0.108821660
     0.000000000  0.875000000  0.358821660
     0.250000000  0.750000000  0.358821660
     0.250000000  0.875000000  0.608821660
     0.000000000  0.750000000  0.608821660
     0.000000000  0.875000000  0.858821660
     0.250000000  0.750000000  0.858821660
     0.750000000  0.125000000  0.108821660
     0.500000000  0.000000000  0.108821660
     0.500000000  0.125000000  0.358821660
     0.750000000  0.000000000  0.358821660
     0.750000000  0.125000000  0.608821660
     0.500000000  0.000000000  0.608821660
     0.500000000  0.125000000  0.858821660
     0.750000000  0.000000000  0.858821660
     0.750000000  0.375000000  0.108821660
     0.500000000  0.250000000  0.108821660
     0.500000000  0.375000000  0.358821660
     0.750000000  0.250000000  0.358821660
     0.750000000  0.375000000  0.608821660
     0.500000000  0.250000000  0.608821660
[...]
   -.119E+02 -.246E-03 0.115E+02   0.120E+02 -.142E-12 -.115E+02   -.155E-02 -.123E-04 0.243E-02   -.653E-04 0.260E-03 0.298E-03
   -.767E+01 0.519E+01 -.800E+01   0.771E+01 -.517E+01 0.799E+01   -.823E-02 0.150E-01 0.955E-02   -.676E-03 -.325E-03 -.683E-03
   -.134E-03 0.394E+01 -.568E+01   -.163E-12 -.392E+01 0.569E+01   -.251E-04 -.457E-02 0.584E-02   0.172E-03 -.616E-03 -.277E-03
   -.996E-04 0.485E+01 -.356E+01   -.516E-12 -.485E+01 0.354E+01   -.539E-04 0.245E-01 0.941E-02   0.153E-03 0.335E-03 0.315E-03
   -.304E+02 0.252E+02 -.128E+02   0.302E+02 -.251E+02 0.127E+02   0.675E-01 -.575E-01 0.198E-01   0.102E-04 -.381E-03 -.577E-03
   -.145E+02 0.117E+02 0.965E+01   0.144E+02 -.117E+02 -.965E+01   0.282E-01 0.763E-02 0.234E-02   -.222E-02 -.855E-04 0.656E-03
   -.150E-03 0.664E+01 0.624E+01   -.183E-12 -.661E+01 -.625E+01   -.403E-04 -.847E-02 0.123E-01   0.193E-03 0.756E-03 0.504E-03
   -.155E-04 0.239E+01 0.327E+01   -.540E-12 -.238E+01 -.324E+01   -.280E-04 0.217E-01 -.567E-03   0.166E-04 0.217E-03 -.733E-03
   -.861E+01 0.630E+01 0.771E+01   0.862E+01 -.630E+01 -.763E+01   -.228E-02 0.164E-02 -.137E-01   -.466E-03 -.105E-02 0.105E-03
   0.767E+01 -.519E+01 -.800E+01   -.771E+01 0.517E+01 0.799E+01   0.818E-02 -.150E-01 0.954E-02   0.937E-03 0.171E-03 -.583E-03
   0.898E-04 0.204E-03 -.978E+01   -.178E-12 -.128E-12 0.976E+01   0.177E-04 0.517E-04 0.312E-01   -.918E-04 -.220E-03 -.365E-03
   -.456E-04 -.310E+02 -.135E+02   -.212E-12 0.307E+02 0.134E+02   0.137E-04 0.818E-01 0.176E-01   0.202E-04 0.962E-03 0.623E-03
   0.122E+02 -.226E-03 -.556E+01   -.122E+02 -.130E-12 0.550E+01   -.970E-02 -.818E-04 0.459E-01   0.981E-03 0.335E-03 0.714E-04
   0.145E+02 -.117E+02 0.965E+01   -.144E+02 0.117E+02 -.965E+01   -.281E-01 -.762E-02 0.237E-02   0.202E-02 0.116E-03 0.615E-03
   -.102E-03 -.480E-04 0.118E+02   -.743E-12 -.217E-12 -.118E+02   -.248E-04 0.375E-04 0.321E-01   0.971E-04 0.639E-04 0.168E-03
   0.114E-03 -.649E+01 0.836E+01   -.227E-12 0.652E+01 -.825E+01   0.116E-04 -.379E-01 -.205E-01   -.185E-03 0.156E-03 -.623E-03
   0.589E+01 0.170E-03 0.470E+01   -.589E+01 -.195E-12 -.465E+01   -.261E-04 -.194E-04 0.150E-01   0.590E-03 -.200E-03 -.173E-03
   0.140E+02 -.621E+01 -.159E+02   -.141E+02 0.618E+01 0.159E+02   0.815E-02 0.269E-01 0.185E-01   0.104E-02 0.512E-03 -.272E-03
   -.697E-04 -.141E+02 -.207E+02   -.132E-12 0.141E+02 0.205E+02   -.112E-04 0.904E-03 0.118E+00   0.844E-04 -.950E-03 -.320E-04
   0.350E-05 -.206E+03 -.180E+03   0.399E-12 0.203E+03 0.177E+03   -.122E-04 0.154E+01 0.200E+01   -.149E-03 0.750E-02 0.363E-02
   0.304E+02 -.252E+02 -.128E+02   -.302E+02 0.251E+02 0.127E+02   -.676E-01 0.576E-01 0.198E-01   0.299E-03 0.104E-03 -.492E-03
   0.438E+02 -.196E+02 0.276E+02   -.434E+02 0.195E+02 -.276E+02   -.112E+00 0.362E-01 -.631E-02   -.610E-03 -.396E-03 0.573E-03
   -.811E-06 -.602E+02 0.435E+02   -.185E-12 0.597E+02 -.433E+02   0.135E-04 0.118E+00 -.107E+00   0.874E-05 0.239E-02 0.818E-03
   0.735E-05 -.810E+01 0.194E+02   0.279E-12 0.808E+01 -.191E+02   -.246E-05 0.892E-01 -.854E-01   -.140E-04 0.857E-03 -.129E-02
   0.861E+01 -.630E+01 0.771E+01   -.862E+01 0.630E+01 -.763E+01   0.227E-02 -.168E-02 -.137E-01   0.456E-03 0.122E-02 0.157E-03
   0.140E+02 0.621E+01 -.159E+02   -.141E+02 -.618E+01 0.159E+02   0.818E-02 -.269E-01 0.185E-01   0.782E-03 -.611E-03 -.360E-03
   -.164E-04 -.201E-03 -.391E+02   -.595E-12 0.995E-13 0.386E+02   -.105E-04 -.787E-05 0.237E+00   -.271E-04 0.282E-03 -.416E-03
   0.231E-04 0.206E+03 -.180E+03   0.254E-12 -.203E+03 0.177E+03   0.101E-03 -.154E+01 0.199E+01   0.174E-03 -.735E-02 0.384E-02
   0.725E+02 -.518E-04 -.294E+02   -.722E+02 -.139E-12 0.293E+02   -.193E+00 0.574E-05 0.122E+00   -.420E-03 0.242E-04 -.387E-03
   0.438E+02 0.196E+02 0.276E+02   -.434E+02 -.195E+02 -.276E+02   -.112E+00 -.362E-01 -.629E-02   -.667E-03 0.463E-03 0.606E-03
   0.773E-04 0.981E-04 0.265E+03   -.570E-12 -.247E-12 -.261E+03   0.274E-04 0.107E-03 -.289E+01   -.970E-04 -.178E-03 -.528E-02
   0.386E-04 0.810E+01 0.194E+02   0.206E-12 -.808E+01 -.191E+02   0.795E-06 -.891E-01 -.855E-01   -.116E-03 -.875E-03 -.101E-02
   0.119E+02 0.494E-04 0.115E+02   -.120E+02 -.121E-12 -.115E+02   0.152E-02 0.189E-04 0.238E-02   0.205E-03 -.677E-04 0.440E-03
   0.767E+01 0.519E+01 -.800E+01   -.771E+01 -.517E+01 0.799E+01   0.820E-02 0.150E-01 0.956E-02   0.854E-03 -.758E-04 -.866E-03
   0.166E-03 0.141E+02 -.207E+02   -.266E-12 -.141E+02 0.205E+02   0.681E-04 -.958E-03 0.118E+00   -.250E-03 0.975E-03 0.265E-03
   0.590E-04 0.310E+02 -.135E+02   0.499E-12 -.307E+02 0.134E+02   0.545E-04 -.818E-01 0.177E-01   -.114E-03 -.119E-02 0.474E-03
   0.304E+02 0.252E+02 -.128E+02   -.302E+02 -.251E+02 0.127E+02   -.675E-01 -.576E-01 0.197E-01   -.874E-05 -.517E-03 -.344E-03
[...]
   0.384E+01 0.277E+01 0.620E+02   -.385E+01 -.276E+01 -.664E+02   0.126E-01 -.203E-01 0.445E+01   0.398E-03 -.149E-03 -.200E-03
   0.833E+01 0.662E+01 -.724E+02   -.830E+01 -.657E+01 0.769E+02   -.465E-01 -.759E-01 -.443E+01   0.320E-03 -.371E-03 -.235E-04
   -.583E+02 0.395E+01 -.245E+01   0.628E+02 -.393E+01 0.242E+01   -.451E+01 -.409E-01 0.393E-01   0.448E-03 0.230E-04 0.319E-03
   0.719E+02 0.110E+02 -.516E+01   -.764E+02 -.109E+02 0.512E+01   0.440E+01 -.613E-01 0.468E-01   0.479E-03 -.246E-03 0.409E-03
   0.100E-04 0.222E+02 0.436E+02   0.445E-14 -.218E+02 -.480E+02   -.163E-03 -.553E+00 0.449E+01   0.720E-04 -.860E-03 0.217E-03
   0.395E-04 0.554E+02 -.643E+02   0.138E-12 -.550E+02 0.686E+02   -.151E-04 -.680E+00 -.423E+01   -.234E-04 -.148E-02 0.109E-02
   -.589E+02 0.110E+02 0.783E+01   0.634E+02 -.109E+02 -.781E+01   -.456E+01 -.134E+00 -.345E-01   0.184E-03 0.573E-04 0.263E-03
   0.676E+02 0.274E+01 0.283E+01   -.721E+02 -.273E+01 -.283E+01   0.445E+01 -.216E-01 0.216E-02   0.276E-03 0.956E-05 0.158E-03
   0.167E+02 0.139E+02 0.679E+02   -.166E+02 -.138E+02 -.724E+02   -.128E+00 -.884E-01 0.452E+01   0.915E-04 -.178E-03 0.572E-03
   0.837E+01 0.659E+01 -.558E+02   -.830E+01 -.657E+01 0.603E+02   -.106E+00 -.622E-01 -.455E+01   0.210E-03 -.355E-05 -.377E-03
   -.615E+02 0.155E+01 0.208E+01   0.660E+02 -.155E+01 -.206E+01   -.448E+01 -.114E-01 -.309E-01   0.334E-03 0.527E-04 -.300E-03
   0.669E+02 0.274E+01 0.353E+01   -.714E+02 -.273E+01 -.349E+01   0.449E+01 -.951E-02 -.496E-01   0.234E-03 0.499E-04 -.363E-03
   0.108E-04 0.961E+01 0.776E+02   0.710E-13 -.961E+01 -.820E+02   0.107E-05 0.292E-02 0.416E+01   -.170E-04 0.273E-03 -.854E-03
   0.712E-04 0.383E+01 -.641E+02   0.156E-12 -.389E+01 0.686E+02   -.190E-04 0.818E-01 -.450E+01   -.229E-04 0.411E-03 -.169E-03
   -.730E-03 -.662E-03 -.415E+01   -.153E-11 0.237E-11 -.625E-12   0.210E-03 0.176E-02 0.502E+01   0.428E-03 -.497E-03 0.125E-02

 POSITION                                       TOTAL-FORCE (eV/Angst)
      3.24892      1.47105      1.41421         0.027618     -0.039781     -0.004024
      0.00000      0.00000      1.41421         0.000001     -0.000016      0.032267
      0.00000      1.47105      4.66314        -0.000016     -0.025611     -0.010987
      3.24892      0.00000      4.66314        -0.018708      0.000025     -0.017811
      3.24892      1.47105      7.91206        -0.054346     -0.063201      0.001247
      0.00000      0.00000      7.91206        -0.000020      0.000012      0.019800
      0.00000      1.47105     11.16099         0.000027     -0.028917      0.015848
      3.24892      0.00000     11.16099        -0.000642      0.000009      0.063861
      3.24892      4.41316      1.41421         0.022421      0.005469     -0.024250
      0.00000      2.94210      1.41421        -0.000016     -0.015981      0.008464
      0.00000      4.41316      4.66314        -0.000017      0.017784     -0.009847
      3.24892      2.94210      4.66314        -0.127619     -0.089664     -0.026579
      3.24892      4.41316      7.91206        -0.265243     -0.032561      0.039601
      0.00000      2.94210      7.91206        -0.000027     -0.027381     -0.002571
      0.00000      4.41316     11.16099         0.000007      0.019235      0.015888
      3.24892      2.94210     11.16099         0.004425      0.000512      0.059337
      3.24892      7.35526      1.41421         0.022395     -0.005426     -0.024291
      0.00000      5.88421      1.41421        -0.000000     -0.000006      0.032387
      0.00000      7.35526      4.66314        -0.000064     -0.017798     -0.009833
      3.24892      5.88421      4.66314        -0.036408     -0.000110      0.032431
      3.24892      7.35526      7.91206        -0.265251      0.032478      0.039598
      0.00000      5.88421      7.91206         0.000040     -0.000027      0.024172
      0.00000      7.35526     11.16099         0.000035     -0.019185      0.015868
      3.24892      5.88421     11.16099         0.013581     -0.000001      0.086014
      3.24892     10.29736      1.41421         0.027660      0.039732     -0.004042
      0.00000      8.82631      1.41421         0.000013      0.015978      0.008441
      0.00000     10.29736      4.66314        -0.000000      0.025655     -0.011007
      3.24892      8.82631      4.66314        -0.127665      0.089754     -0.026637
      3.24892     10.29736      7.91206        -0.054355      0.063252      0.001192
      0.00000      8.82631      7.91206         0.000003      0.027409     -0.002533
      0.00000     10.29736     11.16099        -0.000026      0.028892      0.015816
      3.24892      8.82631     11.16099         0.004369     -0.000513      0.059289
      9.74677      1.47105      1.41421        -0.027656     -0.039729     -0.004035
      6.49785      0.00000      1.41421         0.000016      0.000033      0.008026
      6.49785      1.47105      4.66314        -0.000011     -0.237068     -0.109003
      9.74677      0.00000      4.66314         0.018689      0.000024     -0.017862
      9.74677      1.47105      7.91206         0.054395     -0.063227      0.001200
      6.49785      0.00000      7.91206        -0.000029      0.000050      0.053132
      6.49785      1.47105     11.16099        -0.000059     -0.005766      0.077200
      9.74677      0.00000     11.16099         0.000625     -0.000052      0.063853
      9.74677      4.41316      1.41421        -0.022409      0.005451     -0.024247
      6.49785      2.94210      1.41421         0.000004      0.021673     -0.093172
      6.49785      4.41316      4.66314        -0.000157     -0.983590     -0.574973
      9.74677      2.94210      4.66314         0.127576     -0.089510     -0.026586
      9.74677      4.41316      7.91206         0.265338     -0.032457      0.039554
      6.49785      2.94210      7.91206         0.000022     -0.363566      0.093466
      6.49785      4.41316     11.16099        -0.000009      0.065647      0.145577
      9.74677      2.94210     11.16099        -0.004414      0.000508      0.059351
      9.74677      7.35526      1.41421        -0.022415     -0.005479     -0.024239
      6.49785      5.88421      1.41421        -0.000053      0.000069     -0.230389
      6.49785      7.35526      4.66314         0.000299      0.983555     -0.575110
      9.74677      5.88421      4.66314         0.036264     -0.000025      0.032442
      9.74677      7.35526      7.91206         0.265322      0.032464      0.039553
      6.49785      5.88421      7.91206         0.000008      0.000024      1.248885
      6.49785      7.35526     11.16099        -0.000076     -0.065564      0.145685
      9.74677      5.88421     11.16099        -0.013571     -0.000003      0.086018
      9.74677     10.29736      1.41421        -0.027649      0.039799     -0.004072
      6.49785      8.82631      1.41421        -0.000016     -0.021762     -0.093146
      6.49785     10.29736      4.66314         0.000000      0.237159     -0.108886
      9.74677      8.82631      4.66314         0.127609      0.089538     -0.026638
[...]
     11.72418     10.29736      1.41421         0.014471     -0.010554     -0.005337
      9.74677      8.82631      0.14269         0.002539     -0.011010     -0.010025
      9.74677      8.82631      2.68573        -0.008764     -0.023331      0.027415
     11.01829     10.29736      4.66314        -0.019128     -0.019729      0.006677
      8.47526     10.29736      4.66314        -0.041631     -0.023813      0.004154
      6.49785      8.82631      3.39162        -0.000080     -0.193943      0.047777
      6.49785      8.82631      5.93466         0.000002     -0.306197      0.032179
      7.76937     10.29736      7.91206        -0.055096     -0.072538     -0.018756
     11.72418     10.29736      7.91206        -0.011812     -0.012545     -0.004543
      9.74677      8.82631      6.64054        -0.031872     -0.040618      0.028050
      9.74677      8.82631      9.18358        -0.029351     -0.040726     -0.052796
     11.01829     10.29736     11.16099        -0.010294     -0.009033     -0.012528
      8.47526     10.29736     11.16099         0.010361     -0.008174     -0.016408
      6.49785      8.82631      9.88947        -0.000005      0.004381     -0.207400
      6.49785      8.82631     12.43251         0.000030      0.026238     -0.021918
    total drift:                               -0.000092      0.000599      0.866088

  FREE ENERGIE OF THE ION-ELECTRON SYSTEM (eV)
  free  energy   TOTEN  =     -1784.32350899 eV

  energy  without entropy=    -1784.31781099  energy(sigma->0) =    -1784.32065999

 total charge

# of ion       s       p       d       tot
    1        2.226   6.310   1.738  10.274
    2        2.226   6.310   1.738  10.274
    3        2.226   6.310   1.737  10.274
    4        2.226   6.310   1.739  10.275
    5        2.226   6.310   1.738  10.274
    6        2.226   6.310   1.737  10.274
    7        2.226   6.310   1.737  10.274
    8        2.226   6.310   1.737  10.274
    9        2.226   6.310   1.737  10.274
   10        2.226   6.310   1.737  10.274
   11        2.226   6.310   1.738  10.274
   12        2.226   6.309   1.741  10.276
   13        2.226   6.310   1.739  10.275
   14        2.226   6.310   1.738  10.274
   15        2.226   6.310   1.737  10.274
   16        2.226   6.310   1.737  10.274
   17        2.226   6.310   1.737  10.274
   18        2.226   6.310   1.737  10.274
   19        2.226   6.310   1.738  10.274
   20        2.226   6.310   1.742  10.277
   21        2.226   6.310   1.739  10.275
   22        2.226   6.310   1.738  10.274
   23        2.226   6.310   1.737  10.274
   24        2.226   6.310   1.737  10.274
   25        2.226   6.310   1.738  10.274
   26        2.226   6.310   1.737  10.274
   27        2.226   6.310   1.737  10.274
   28        2.226   6.309   1.741  10.276
   29        2.226   6.310   1.738  10.274
   30        2.226   6.310   1.738  10.274
   31        2.226   6.310   1.737  10.274
   32        2.226   6.310   1.737  10.274
   33        2.226   6.310   1.738  10.274
   34        2.226   6.310   1.737  10.274
   35        2.226   6.309   1.741  10.276
   36        2.226   6.310   1.739  10.275
   37        2.226   6.310   1.738  10.274
   38        2.226   6.310   1.738  10.274
   39        2.226   6.310   1.737  10.274
   40        2.226   6.310   1.737  10.274
   41        2.226   6.310   1.737  10.274
   42        2.226   6.309   1.745  10.280
   43        2.215   6.266   1.743  10.224
   44        2.226   6.309   1.741  10.276
   45        2.226   6.310   1.739  10.275
   46        2.227   6.310   1.736  10.273
   47        2.226   6.309   1.746  10.280
   48        2.226   6.310   1.737  10.274
   49        2.226   6.310   1.737  10.274
   50        2.226   6.309   1.741  10.276
   51        2.215   6.266   1.743  10.224
   52        2.226   6.310   1.742  10.277
   53        2.226   6.310   1.739  10.275
   54        2.217   6.268   1.752  10.237
   55        2.226   6.309   1.746  10.280
   56        2.226   6.310   1.737  10.274
   57        2.226   6.310   1.738  10.274
   58        2.226   6.309   1.745  10.280
   59        2.226   6.309   1.741  10.276
   60        2.226   6.309   1.741  10.276
[...]
  177        1.570   3.485   0.000   5.054
  178        1.570   3.485   0.000   5.054
  179        1.570   3.485   0.000   5.055
  180        1.570   3.485   0.000   5.054
  181        1.570   3.485   0.000   5.055
  182        1.572   3.474   0.000   5.046
  183        1.570   3.485   0.000   5.055
  184        1.570   3.484   0.000   5.054
  185        1.570   3.485   0.000   5.054
  186        1.570   3.485   0.000   5.055
  187        1.570   3.485   0.000   5.054
  188        1.570   3.485   0.000   5.054
  189        1.570   3.485   0.000   5.054
  190        1.569   3.485   0.000   5.055
  191        1.570   3.484   0.000   5.054
tot        341.796 846.233 111.2901299.319