 vasp.6.2.0 18Jan21 (build Mar 03 2021 13:27:41) complex

 executed on             LinuxIFC date 2021.05.07  16:18:26

 INCAR:
   SYSTEM = TiO2-rutile
   ISMEAR = 0
   SIGMA = 0.05
   EDIFF = 1E-6
   ALGO = Fast
   METAGGA = R2SCAN
   ISTART = 0
   IBRION = 2
   NSW = 200
   EDIFFG = -0.01
   ISIF = 3
   ENCUT = 700
   PREC = Accurate
   LASPH = .TRUE.
   LREAL = .FALSE.
   ISPIN = 2
   MAGMOM = 6*1.0
   NELM = 60
   NELMIN = 4
   LWAVE = .FALSE.
   LCHARG = .FALSE.
   LORBIT = 11

 POTCAR:    PAW_PBE Ti_sv 26Sep2005
 POTCAR:    PAW_PBE O 08Apr2002
|           W    W    AA    RRRRR   N    N  II  N    N   GGGG   !!!           |
|           W    W   A  A   R    R  NN   N  II  NN   N  G    G  !!!           |
|           W    W  A    A  R    R  N N  N  II  N N  N  G       !!!           |
|           W WW W  AAAAAA  RRRRR   N  N N  II  N  N N  G  GGG   !            |
|           WW  WW  A    A  R   R   N   NN  II  N   NN  G    G                |
|           W    W  A    A  R    R  N    N  II  N    N   GGGG   !!!           |
|     For optimal performance we recommend to set                             |
|       NCORE = 2 up to number-of-cores-per-socket                            |
|     This setting can greatly improve the performance of VASP for DFT.       |
|     The default, NCORE=1 might be grossly inefficient on modern             |
|     multi-core architectures or massively parallel machines. Do your        |
|     Unfortunately you need to use the default for GW and RPA                |
|     calculations (for HF NCORE is supported but not extensively tested      |
|     yet).                                                                   |

   TITEL  = PAW_PBE Ti_sv 26Sep2005
   POMASS =   47.880; ZVAL   =   12.000    mass and valenz
   ENMAX  =  274.610; ENMIN  =  205.957 eV

   TITEL  = PAW_PBE O 08Apr2002
   POMASS =   16.000; ZVAL   =    6.000    mass and valenz
   ENMAX  =  400.000; ENMIN  =  300.000 eV

  PAW_PBE Ti_sv 26Sep2005               :
  PAW_PBE O 08Apr2002                   :

 POSCAR: Ti2 O4
  positions in direct lattice
  velocities in cartesian coordinates

 METAGGA = R2SCA    LMAXTAU =  6    LMIXTAU =  F

 ion  position               nearest neighbor table
   1  0.500  0.500  0.500-   5 1.96   6 1.96   5 1.96   6 1.96   3 2.00   4 2.00
   2  0.000  0.000  0.000-   3 1.96   4 1.96   3 1.96   4 1.96   5 2.00   6 2.00
   3  0.195  0.805  0.500-   2 1.96   2 1.96   1 2.00
   4  0.805  0.195  0.500-   2 1.96   2 1.96   1 2.00
   5  0.305  0.305  0.000-   1 1.96   1 1.96   2 2.00
   6  0.695  0.695  0.000-   1 1.96   1 1.96   2 2.00

  LATTYP: Found a simple tetragonal cell.
 ALAT       =     4.6457254827
 C/A-ratio  =     0.6383776753

  Lattice vectors:

 A1 = (   4.6457254827,   0.0000000000,   0.0000000000)
 A2 = (   0.0000000000,   4.6457254827,   0.0000000000)
 A3 = (   0.0000000000,   0.0000000000,   2.9657274338)

Analysis of symmetry for initial positions (statically):
 Subroutine PRICEL returns:
 Original cell was already a primitive cell.

 Routine SETGRP: Setting up the symmetry group for a
 simple tetragonal supercell.

 Subroutine GETGRP returns: Found 16 space group operations
 (whereof  8 operations were pure point group operations)
 out of a pool of 16 trial point group operations.

The static configuration has the point symmetry D_2h.
 The point group associated with its full space group is D_4h.

Analysis of symmetry for dynamics (positions and initial velocities):
 Subroutine PRICEL returns:
 Original cell was already a primitive cell.

[...]

The dynamic configuration has the point symmetry D_2h.
 The point group associated with its full space group is D_4h.

Analysis of structural, dynamic, and magnetic symmetry:
 Subroutine PRICEL returns:
 Original cell was already a primitive cell.

 Routine SETGRP: Setting up the symmetry group for a
 simple tetragonal supercell.

 Subroutine GETGRP returns: Found 16 space group operations
 (whereof  8 operations were pure point group operations)
 out of a pool of 16 trial point group operations.

The overall configuration has the point symmetry D_2h.
 The point group associated with its full space group is D_4h.

 Subroutine INISYM returns: Found 16 space group operations
 (whereof  8 operations are pure point group operations),
 and found     1 'primitive' translations

                                     Primitive cell

  volume of cell :      64.0086

  direct lattice vectors                    reciprocal lattice vectors
     4.645725483  0.000000000  0.000000000     0.215251634  0.000000000  0.000000000
     0.000000000  4.645725483  0.000000000     0.000000000  0.215251634  0.000000000
     0.000000000  0.000000000  2.965727434     0.000000000  0.000000000  0.337185403

  length of vectors
     4.645725483  4.645725483  2.965727434     0.215251634  0.215251634  0.337185403

  position of ions in fractional coordinates (direct lattice)
     0.500000000  0.500000000  0.500000000
     0.000000000  0.000000000  0.000000000
     0.195005798  0.804994202  0.500000000
     0.804994202  0.195005798  0.500000000
     0.304994202  0.304994202  0.000000000
     0.695005798  0.695005798  0.000000000

  ion indices of the primitive-cell ions
   primitive index   ion index
                 1           1
                 2           2
                 3           3
                 4           4
                 5           5
                 6           6

 KPOINTS: pymatgen v2020.8.13 with grid density =

Automatic generation of k-mesh.
 Grid dimensions read from file:
 generate k-points for:    7    7   11

 Generating k-lattice:

  Cartesian coordinates                     Fractional coordinates (reciprocal lattice)
     0.030750233  0.000000000  0.000000000     0.142857143  0.000000000  0.000000000
     0.000000000  0.030750233  0.000000000     0.000000000  0.142857143  0.000000000
     0.000000000  0.000000000  0.030653218     0.000000000  0.000000000  0.090909091

  Length of vectors
     0.030750233  0.030750233  0.030653218

  Shift w.r.t. Gamma in fractional coordinates (k-lattice)
     0.000000000  0.000000000  0.000000000

 Subroutine IBZKPT returns following result:

 Found     60 irreducible k-points:

 Following reciprocal coordinates:
            Coordinates               Weight
  0.000000  0.000000  0.000000      1.000000
  0.142857  0.000000  0.000000      4.000000
  0.285714  0.000000  0.000000      4.000000
  0.428571  0.000000  0.000000      4.000000
  0.142857  0.142857  0.000000      4.000000
  0.285714  0.142857  0.000000      8.000000
  0.428571  0.142857  0.000000      8.000000
  0.285714  0.285714  0.000000      4.000000
  0.428571  0.285714  0.000000      8.000000
  0.428571  0.428571  0.000000      4.000000
  0.000000  0.000000  0.090909      2.000000
  0.142857  0.000000  0.090909      8.000000
  0.285714  0.000000  0.090909      8.000000
  0.428571  0.000000  0.090909      8.000000
  0.142857  0.142857  0.090909      8.000000
  0.285714  0.142857  0.090909     16.000000
  0.428571  0.142857  0.090909     16.000000
  0.285714  0.285714  0.090909      8.000000
  0.428571  0.285714  0.090909     16.000000
  0.428571  0.428571  0.090909      8.000000
  0.000000  0.000000  0.181818      2.000000
  0.142857  0.000000  0.181818      8.000000
  0.285714  0.000000  0.181818      8.000000
  0.428571  0.000000  0.181818      8.000000
  0.142857  0.142857  0.181818      8.000000
  0.285714  0.142857  0.181818     16.000000
  0.428571  0.142857  0.181818     16.000000
  0.285714  0.285714  0.181818      8.000000
  0.428571  0.285714  0.181818     16.000000
  0.428571  0.428571  0.181818      8.000000
  0.000000  0.000000  0.272727      2.000000
  0.142857  0.000000  0.272727      8.000000
  0.285714  0.000000  0.272727      8.000000
  0.428571  0.000000  0.272727      8.000000
  0.142857  0.142857  0.272727      8.000000
  0.285714  0.142857  0.272727     16.000000
  0.428571  0.142857  0.272727     16.000000
  0.285714  0.285714  0.272727      8.000000
  0.428571  0.285714  0.272727     16.000000
  0.428571  0.428571  0.272727      8.000000
  0.000000  0.000000  0.363636      2.000000
  0.142857  0.000000  0.363636      8.000000
  0.285714  0.000000  0.363636      8.000000
  0.428571  0.000000  0.363636      8.000000
  0.142857  0.142857  0.363636      8.000000
  0.285714  0.142857  0.363636     16.000000
  0.428571  0.142857  0.363636     16.000000
  0.285714  0.285714  0.363636      8.000000
  0.428571  0.285714  0.363636     16.000000
  0.428571  0.428571  0.363636      8.000000
  0.000000  0.000000  0.454545      2.000000
  0.142857  0.000000  0.454545      8.000000
  0.285714  0.000000  0.454545      8.000000
  0.428571  0.000000  0.454545      8.000000
  0.142857  0.142857  0.454545      8.000000
  0.285714  0.142857  0.454545     16.000000
  0.428571  0.142857  0.454545     16.000000
  0.285714  0.285714  0.454545      8.000000
  0.428571  0.285714  0.454545     16.000000
  0.428571  0.428571  0.454545      8.000000

 Following cartesian coordinates:
            Coordinates               Weight
  0.000000  0.000000  0.000000      1.000000
  0.030750  0.000000  0.000000      4.000000
  0.061500  0.000000  0.000000      4.000000
  0.092251  0.000000  0.000000      4.000000
  0.030750  0.030750  0.000000      4.000000
  0.061500  0.030750  0.000000      8.000000
  0.092251  0.030750  0.000000      8.000000
  0.061500  0.061500  0.000000      4.000000
  0.092251  0.061500  0.000000      8.000000
  0.092251  0.092251  0.000000      4.000000
  0.000000  0.000000  0.030653      2.000000
  0.030750  0.000000  0.030653      8.000000
  0.061500  0.000000  0.030653      8.000000
  0.092251  0.000000  0.030653      8.000000
  0.030750  0.030750  0.030653      8.000000
  0.061500  0.030750  0.030653     16.000000
  0.092251  0.030750  0.030653     16.000000
  0.061500  0.061500  0.030653      8.000000
  0.092251  0.061500  0.030653     16.000000
  0.092251  0.092251  0.030653      8.000000
  0.000000  0.000000  0.061306      2.000000
  0.030750  0.000000  0.061306      8.000000
  0.061500  0.000000  0.061306      8.000000
  0.092251  0.000000  0.061306      8.000000
  0.030750  0.030750  0.061306      8.000000
  0.061500  0.030750  0.061306     16.000000
  0.092251  0.030750  0.061306     16.000000
  0.061500  0.061500  0.061306      8.000000
  0.092251  0.061500  0.061306     16.000000
  0.092251  0.092251  0.061306      8.000000
  0.000000  0.000000  0.091960      2.000000
  0.030750  0.000000  0.091960      8.000000
  0.061500  0.000000  0.091960      8.000000
  0.092251  0.000000  0.091960      8.000000
  0.030750  0.030750  0.091960      8.000000
  0.061500  0.030750  0.091960     16.000000
  0.092251  0.030750  0.091960     16.000000
  0.061500  0.061500  0.091960      8.000000
  0.092251  0.061500  0.091960     16.000000
  0.092251  0.092251  0.091960      8.000000
  0.000000  0.000000  0.122613      2.000000
  0.030750  0.000000  0.122613      8.000000
  0.061500  0.000000  0.122613      8.000000
  0.092251  0.000000  0.122613      8.000000
  0.030750  0.030750  0.122613      8.000000
  0.061500  0.030750  0.122613     16.000000
  0.092251  0.030750  0.122613     16.000000
[...]

[...]

------------------------ aborting loop because EDIFF is reached ----------------------------------------

 total charge

# of ion       s       p       d       tot
    1        2.212   6.286   1.620  10.118
    2        2.212   6.286   1.620  10.118
    3        1.571   3.522   0.000   5.093
    4        1.571   3.522   0.000   5.093
    5        1.571   3.522   0.000   5.093
    6        1.571   3.522   0.000   5.093
tot         10.708  26.660   3.239  40.608

 magnetization (x)

[...]

  FORCE on cell =-STRESS in cart. coord.  units (eV):
  Direction    XX          YY          ZZ          XY          YZ          ZX
  Alpha Z   193.72746   193.72746   193.72746
  Ewald   -1381.08740 -1381.08740  -800.50754    -0.00000    -0.00000    -0.00000
  Hartree   306.60569   306.60569   637.43539    -0.00000    -0.00000    -0.00000
  E(xc)    -262.54939  -262.62976  -262.27542    -0.01752    -0.02229    -0.04756
  Local     253.66915   253.66915  -647.52835    -0.00000     0.00000    -0.00000
  n-local  -148.17766  -147.04640  -152.36697    -0.75806     0.16337     0.11408
  augment   151.60499   151.60499   152.27904     0.00000     0.00000     0.00000
  Kinetic   884.98094   882.39174   877.58501    -0.39446    -0.75610    -1.49657
  Fock        0.00000     0.00000     0.00000     0.00000     0.00000     0.00000
  Total      -1.99537    -1.99537    -1.65138     0.00000     0.00000     0.00000
  in kB     -49.94533   -49.94533   -41.33518     0.00000     0.00000     0.00000

 VOLUME and BASIS-vectors are now :
  energy-cutoff  :      700.00
  volume of cell :       64.01
      direct lattice vectors                 reciprocal lattice vectors
     4.645725483  0.000000000  0.000000000     0.215251634  0.000000000  0.000000000
     0.000000000  4.645725483  0.000000000     0.000000000  0.215251634  0.000000000
     0.000000000  0.000000000  2.965727434     0.000000000  0.000000000  0.337185403

[...]

 FORCES acting on ions
    electron-ion (+dipol)            ewald-force                    non-local-force                 convergence-correction
   0.124E-11 -.852E-13 -.219E-11   0.000E+00 0.284E-13 -.621E-15   -.300E-22 -.579E-23 0.136E-23   -.295E-12 -.139E-12 -.225E-12
   0.651E-14 0.731E-14 -.110E-12   -.114E-12 -.114E-12 -.238E-14   -.137E-21 0.128E-21 -.119E-23   -.299E-13 -.139E-12 -.650E-13
   -.466E+02 0.466E+02 0.185E-11   0.500E+02 -.500E+02 0.191E-15   -.342E+01 0.342E+01 0.843E-18   -.634E-03 0.634E-03 -.592E-15
   0.466E+02 -.466E+02 -.863E-11   -.500E+02 0.500E+02 -.627E-16   0.342E+01 -.342E+01 0.489E-18   0.634E-03 -.634E-03 -.375E-13
   0.466E+02 0.466E+02 -.286E-06   -.500E+02 -.500E+02 -.512E-15   0.342E+01 0.342E+01 0.123E-17   0.634E-03 0.634E-03 0.278E-13
   -.466E+02 -.466E+02 0.286E-06   0.500E+02 0.500E+02 -.682E-15   -.342E+01 -.342E+01 0.120E-17   -.634E-03 -.634E-03 0.236E-13
   0.292E-11 -.376E-11 -.283E-11   0.000E+00 -.711E-14 -.407E-14   -.444E-15 0.000E+00 0.377E-17   -.480E-12 -.363E-12 -.276E-12

 POSITION                                       TOTAL-FORCE (eV/Angst)
      2.32286      2.32286      1.48286         0.000000      0.000000      0.000000
      0.00000      0.00000      0.00000         0.000000      0.000000      0.000000
      0.90594      3.73978      1.48286        -0.034847      0.034847     -0.000000
      3.73978      0.90594      1.48286         0.034847     -0.034847     -0.000000
      1.41692      1.41692      0.00000         0.034847      0.034847     -0.000000
      3.22881      3.22881      0.00000        -0.034847     -0.034847     -0.000000
    total drift:                                0.000000     -0.000000     -0.000000

  FREE ENERGIE OF THE ION-ELECTRON SYSTEM (eV)
  free  energy   TOTEN  =       -69.80580885 eV

  energy  without entropy=      -69.80580885  energy(sigma->0) =      -69.80580885

[...]

 d Force =-0.9721821E-03[-0.241E-02, 0.461E-03]  d Energy =-0.1559167E-01 0.146E-01
 d Force =-0.6720067E+00[-0.682E+00,-0.662E+00]  d Ewald  = 0.5512722E+02-0.558E+02

 Steepest descent step on ions:
 trial-energy change:    0.015592  1 .order    0.017310   -0.086421    0.121042
  (g-gl).g = 0.864E-01      g.g   = 0.864E-01  gl.gl    = 0.000E+00
 g(Force)  = 0.469E-03   g(Stress)= 0.860E-01 ortho     = 0.000E+00
 gamma     =   0.00000
 trial     =   1.00000
 opt step  =   0.42874  (harmonic =   0.41656) maximal distance =0.00072076
 next E    =   -69.824470   (d E  =  -0.01866)

[...]

 d Force = 0.9158555E-03[ 0.422E-03, 0.141E-02]  d Energy = 0.3446781E-01-0.336E-01
 d Force = 0.3963285E+00[ 0.393E+00, 0.400E+00]  d Ewald  =-0.3169681E+02 0.321E+02

[...]

 d Force = 0.5808704E-03[ 0.179E-03, 0.983E-03]  d Energy = 0.2138250E-02-0.156E-02
 d Force = 0.8905454E+00[ 0.866E+00, 0.915E+00]  d Ewald  = 0.4844360E+01-0.395E+01

 Conjugate gradient step on ions:
 trial-energy change:   -0.002138  1 .order   -0.002146   -0.003577   -0.000715
  (g-gl).g = 0.366E-02      g.g   = 0.402E-02  gl.gl    = 0.864E-01
 g(Force)  = 0.114E-02   g(Stress)= 0.288E-02 ortho     = 0.360E-03
 gamma     =   0.04238
 trial     =   0.88575
 opt step  =   1.11172  (harmonic =   1.10716) maximal distance =0.00284030
 next E    =   -69.826914   (d E  =  -0.00223)

[...]

 eigenvalue-minimisations  : 19736
 total energy-change (2. order) : 0.1799077E-04  (-0.2107792E-05)
 number of electron      48.0000000 magnetization      -0.0000000
 augmentation part        9.4609427 magnetization       0.0000002

[...]

 Broyden mixing:
  rms(total) = 0.43358E-03    rms(broyden)= 0.43356E-03
  rms(prec ) = 0.68281E-03
  weight for this iteration     100.00

 eigenvalues of (default mixing * dielectric matrix)
  average eigenvalue GAMMA=   1.5169
  2.1979  1.9265  1.3251  0.6179

[...]

--------------------------------------- Iteration      5(   6)  ---------------------------------------

 eigenvalue-minimisations  : 15359
 total energy-change (2. order) :-0.5758502E-06  (-0.8277535E-07)
 number of electron      48.0000000 magnetization       0.0000000
 augmentation part        9.4603398 magnetization       0.0000001

 Free energy of the ion-electron system (eV)
  alpha Z        PSCENC =       197.94033347
  Ewald energy   TEWEN  =     -3592.17798853
  -Hartree energ DENC   =     -1236.90903799
  -exchange      EXHF   =         0.00000000
  -V(xc)+E(xc)   XCENC  =       278.46089171
  PAW double counting   =      5444.63687504    -5419.69198585
  entropy T*S    EENTRO =        -0.00000000
  eigenvalues    EBANDS =      -647.74056942
  atomic energy  EATOM  =      4905.65456919
  Solvation  Ediel_sol  =         0.00000000
  free energy    TOTEN  =       -69.82691238 eV

  energy without entropy =      -69.82691238  energy(sigma->0) =      -69.82691238

 average (electrostatic) potential at core
  the test charge radii are     1.0397  0.7215
  (the norm of the test charge is              1.0000)
       1 -80.9536       2 -80.9536       3 -73.0343       4 -73.0343       5 -73.0343
       6 -73.0343

 E-fermi :   4.8874     XC(G=0): -12.1337     alpha+bet :-13.7496

 Fermi energy:         4.8874123121

[...]

 k-point    60 :       0.4286    0.4286    0.4545
  band No.  band energies     occupation
      1     -54.6092      1.00000
      2     -54.6090      1.00000
      3     -30.1400      1.00000
      4     -30.1379      1.00000
      5     -29.7798      1.00000
      6     -29.7767      1.00000
      7     -29.7452      1.00000
      8     -29.7450      1.00000
      9     -13.5177      1.00000
     10     -13.4477      1.00000
     11     -13.1926      1.00000
     12     -13.1196      1.00000
     13      -0.4482      1.00000
     14      -0.2756      1.00000
     15      -0.1207      1.00000
     16      -0.0008      1.00000
     17       0.7801      1.00000
     18       0.9375      1.00000
     19       1.6956      1.00000
     20       1.7271      1.00000
     21       3.1033      1.00000
     22       3.1548      1.00000
     23       3.6919      1.00000
     24       3.7578      1.00000
     25       7.2802      0.00000
     26       7.5050      0.00000
     27       8.0447      0.00000
     28       8.0879      0.00000
     29       8.1041      0.00000
     30       8.2838      0.00000
     31      10.2884      0.00000
     32      10.7603      0.00000
     33      10.7937      0.00000
     34      11.2657      0.00000
     35      16.8986      0.00000
     36      17.0477      0.00000
     37      19.2176      0.00000
     38      19.7570      0.00000
     39      20.2160      0.00000
     40      20.6975      0.00000
     41      22.6742      0.00000
     42      22.7300      0.00000
     43      24.0326      0.00000
     44      24.2906      0.00000
     45      24.8914      0.00000
     46      25.2506      0.00000
     47      28.9025      0.00000
     48      29.5286      0.00000
     49      30.4286      0.00000
     50      30.5624      0.00000
     51      31.5256      0.00000
     52      32.1108      0.00000
     53      34.7867      0.00000
     54      34.8525      0.00000
     55      36.9030      0.00000
     56      37.2512      0.00000
     57      38.2698      0.00000
     58      38.6800      0.00000
     59      39.0402      0.00000
     60      39.4069      0.00000
[...]
     66      42.1032      0.00000
     67      43.4749      0.00000
     68      43.8647      0.00000
     69      44.4251      0.00000
     70      45.0490      0.00000
     71      45.3036      0.00000
     72      45.7615      0.00000
     73      46.1681      0.00000
     74      46.9735      0.00000
     75      48.2128      0.00000
     76      48.3840      0.00000
     77      50.2899      0.00000
     78      50.4240      0.00000
     79      52.2561      0.00000
     80      52.4536      0.00000
 Fermi energy:         4.8874123121

 spin component 2

[...]

 k-point    60 :       0.4286    0.4286    0.4545
  band No.  band energies     occupation
      1     -54.6092      1.00000
      2     -54.6090      1.00000
      3     -30.1400      1.00000
      4     -30.1379      1.00000
      5     -29.7798      1.00000
      6     -29.7767      1.00000
      7     -29.7452      1.00000
      8     -29.7450      1.00000
      9     -13.5177      1.00000
     10     -13.4477      1.00000
     11     -13.1926      1.00000
     12     -13.1196      1.00000
     13      -0.4482      1.00000
     14      -0.2756      1.00000
     15      -0.1207      1.00000
     16      -0.0008      1.00000
     17       0.7801      1.00000
     18       0.9375      1.00000
     19       1.6956      1.00000
     20       1.7271      1.00000
     21       3.1033      1.00000
     22       3.1548      1.00000
     23       3.6919      1.00000
     24       3.7578      1.00000
     25       7.2802      0.00000
     26       7.5050      0.00000
     27       8.0447      0.00000
     28       8.0879      0.00000
     29       8.1041      0.00000
     30       8.2838      0.00000
     31      10.2884      0.00000
     32      10.7603      0.00000
     33      10.7937      0.00000
     34      11.2657      0.00000
     35      16.8986      0.00000
     36      17.0477      0.00000
     37      19.2176      0.00000
     38      19.7570      0.00000
     39      20.2160      0.00000
     40      20.6975      0.00000
     41      22.6742      0.00000
     42      22.7300      0.00000
     43      24.0326      0.00000
     44      24.2906      0.00000
     45      24.8914      0.00000
     46      25.2506      0.00000
     47      28.9025      0.00000
     48      29.5286      0.00000
     49      30.4286      0.00000
     50      30.5624      0.00000
     51      31.5256      0.00000
     52      32.1108      0.00000
     53      34.7867      0.00000
     54      34.8525      0.00000
     55      36.9030      0.00000
     56      37.2512      0.00000
     57      38.2698      0.00000
     58      38.6800      0.00000
     59      39.0402      0.00000
     60      39.4069      0.00000
[...]
     66      42.1032      0.00000
     67      43.4749      0.00000
     68      43.8647      0.00000
     69      44.4251      0.00000
     70      45.0490      0.00000
     71      45.3036      0.00000
     72      45.7615      0.00000
     73      46.1681      0.00000
     74      46.9735      0.00000
     75      48.2128      0.00000
     76      48.3840      0.00000
     77      50.2899      0.00000
     78      50.4240      0.00000
     79      52.2561      0.00000
     80      52.4536      0.00000

[...]

 soft charge-density along one line, spin component           2
         0         1         2         3         4         5         6         7         8         9
 total charge-density along one line

------------------------ aborting loop because EDIFF is reached ----------------------------------------

[...]

  FORCE on cell =-STRESS in cart. coord.  units (eV):
  Direction    XX          YY          ZZ          XY          YZ          ZX
  Alpha Z   197.94033   197.94033   197.94033
  Ewald   -1386.21248 -1386.21248  -819.75573    -0.00000     0.00000     0.00000
  Hartree   305.18897   305.18897   626.53844    -0.00000    -0.00000    -0.00000
  E(xc)    -262.93427  -263.02173  -262.70925    -0.01780    -0.02371    -0.04953
  Local     256.79065   256.79065  -620.45712     0.00000     0.00000    -0.00000
  n-local  -149.48672  -148.21516  -153.24217    -0.77751     0.17096     0.11219
  augment   150.98380   150.98380   151.49550     0.00000     0.00000     0.00000
  Kinetic   888.54431   885.72832   880.19578    -0.40809    -0.80590    -1.56358
  Fock        0.00000     0.00000     0.00000     0.00000     0.00000     0.00000
  Total      -0.00134    -0.00134     0.00579     0.00000     0.00000     0.00000
  in kB      -0.03432    -0.03432     0.14801     0.00000     0.00000     0.00000

 VOLUME and BASIS-vectors are now :
  energy-cutoff  :      700.00
  volume of cell :       62.65
      direct lattice vectors                 reciprocal lattice vectors
     4.600444333  0.000000000  0.000000000     0.217370308 -0.000000000  0.000000000
     0.000000000  4.600444333  0.000000000    -0.000000000  0.217370308  0.000000000
     0.000000000  0.000000000  2.960026865     0.000000000  0.000000000  0.337834772

  length of vectors
     4.600444333  4.600444333  2.960026865     0.217370308  0.217370308  0.337834772

 FORCES acting on ions
    electron-ion (+dipol)            ewald-force                    non-local-force                 convergence-correction
   0.126E-11 -.125E-12 -.220E-11   0.284E-13 -.114E-12 -.197E-13   -.903E-22 -.119E-21 -.414E-23   -.422E-12 -.844E-13 -.110E-12
   -.265E-13 0.402E-14 -.107E-12   0.284E-13 0.000E+00 -.195E-13   0.117E-21 -.132E-21 -.367E-23   -.208E-12 -.167E-12 -.973E-13
   -.441E+02 0.441E+02 0.150E-12   0.473E+02 -.473E+02 0.845E-14   -.320E+01 0.320E+01 0.264E-17   0.455E-03 -.455E-03 0.150E-13
   0.441E+02 -.441E+02 -.281E-11   -.473E+02 0.473E+02 0.874E-14   0.320E+01 -.320E+01 0.266E-17   -.455E-03 0.455E-03 0.838E-14
   0.441E+02 0.441E+02 -.406E-06   -.473E+02 -.473E+02 0.811E-14   0.320E+01 0.320E+01 0.319E-17   -.455E-03 -.455E-03 0.196E-13
   -.441E+02 -.441E+02 0.406E-06   0.473E+02 0.473E+02 0.824E-14   -.320E+01 -.320E+01 0.210E-17   0.455E-03 0.455E-03 -.519E-13
   0.283E-11 -.236E-11 0.112E-11   0.000E+00 -.711E-14 -.564E-14   0.000E+00 -.444E-15 0.106E-16   -.726E-12 -.403E-12 -.216E-12

 POSITION                                       TOTAL-FORCE (eV/Angst)
      2.30022      2.30022      1.48001        -0.000000     -0.000000     -0.000000
     -0.00000      0.00000      0.00000         0.000000     -0.000000     -0.000000
      0.89925      3.70120      1.48001        -0.001530      0.001530     -0.000000
      3.70120      0.89925      1.48001         0.001530     -0.001530      0.000000
      1.40097      1.40097     -0.00000         0.001530      0.001530     -0.000000
      3.19947      3.19947     -0.00000        -0.001530     -0.001530      0.000000
    total drift:                                0.000000     -0.000000      0.000000

  FREE ENERGIE OF THE ION-ELECTRON SYSTEM (eV)
  free  energy   TOTEN  =       -69.82691238 eV

  energy  without entropy=      -69.82691238  energy(sigma->0) =      -69.82691238

 d Force = 0.1928023E-04[-0.706E-05, 0.456E-04]  d Energy = 0.8913906E-04-0.699E-04
 d Force = 0.2197447E+00[ 0.218E+00, 0.221E+00]  d Ewald  = 0.1223593E+01-0.100E+01

 reached required accuracy - stopping structural energy minimisation

 total charge

[...]

 magnetization (x)

# of ion       s       p       d       tot
    1        0.000   0.000   0.000   0.000
    2        0.000   0.000   0.000   0.000
    3       -0.000  -0.000   0.000  -0.000
    4       -0.000  -0.000   0.000  -0.000
    5       -0.000  -0.000   0.000  -0.000
    6       -0.000  -0.000   0.000  -0.000
tot          0.000  -0.000   0.000   0.000