 vasp.6.2.0 18Jan21 (build Mar 03 2021 13:27:41) complex

 executed on             LinuxIFC date 2021.07.14  23:03:51

 INCAR:
   SYSTEM = TiO2-rutile
   ISMEAR = 0
   SIGMA = 0.05
   EDIFF = 1E-5
   ALGO = Fast
   ISTART = 1
   ISYM = 0
   IBRION = -1
   NSW = 0
   EDIFFG = -0.01
   ENCUT = 500
   PREC = Accurate
   LASPH = .TRUE.
   LREAL = Auto
   ISPIN = 1
   NELM = 500
   NELMIN = 4
   NCORE = 20
   LWAVE = .FALSE.
   LCHARG = .FALSE.
   LORBIT = 11

 POTCAR:    PAW_PBE Ti_sv 26Sep2005
 POTCAR:    PAW_PBE O 08Apr2002
 POTCAR:    PAW_PBE Ti_sv 26Sep2005
   VRHFIN =Ti: 3p4s3d

   TITEL  = PAW_PBE Ti_sv 26Sep2005
   POMASS =   47.880; ZVAL   =   12.000    mass and valenz
   ENMAX  =  274.610; ENMIN  =  205.957 eV

   TITEL  = PAW_PBE O 08Apr2002
   POMASS =   16.000; ZVAL   =    6.000    mass and valenz
   ENMAX  =  400.000; ENMIN  =  300.000 eV

 Optimization of the real space projectors (new method)

 maximal supplied QI-value         = 16.25
 optimisation between [QCUT,QGAM] = [ 11.38, 22.75] = [ 36.24,144.96] Ry
 Optimized for a Real-space Cutoff    1.27 Angstroem

   l    n(q)    QCUT    max X(q) W(low)/X(q) W(high)/X(q)  e(spline)
   0      9    11.376    12.277    0.53E-04    0.25E-04    0.25E-07
   0      9    11.376    11.419    0.89E-04    0.67E-05    0.35E-07
   1      8    11.376     4.010    0.13E-03    0.11E-03    0.29E-07
   1      8    11.376     6.182    0.94E-04    0.19E-03    0.11E-06
   2      8    11.376    47.177    0.13E-03    0.88E-03    0.24E-06
   2      8    11.376    42.437    0.13E-03    0.86E-03    0.23E-06
 Optimization of the real space projectors (new method)

 maximal supplied QI-value         = 24.76
 optimisation between [QCUT,QGAM] = [ 11.39, 22.77] = [ 36.31,145.25] Ry
 Optimized for a Real-space Cutoff    1.10 Angstroem

   l    n(q)    QCUT    max X(q) W(low)/X(q) W(high)/X(q)  e(spline)
   0      7    11.387    20.381    0.22E-03    0.48E-03    0.18E-06
   0      7    11.387    15.268    0.22E-03    0.52E-03    0.19E-06
   1      7    11.387     5.964    0.22E-03    0.73E-03    0.24E-06
   1      7    11.387     5.382    0.19E-03    0.60E-03    0.21E-06
  PAW_PBE Ti_sv 26Sep2005               :
  PAW_PBE O 08Apr2002                   :

 POSCAR: Ti  O
  positions in direct lattice
  velocities in cartesian coordinates
 exchange correlation table for  LEXCH =        8
   RHO(1)=    0.500       N(1)  =     2000
   RHO(2)=  100.500       N(2)  =     4000

 ion  position               nearest neighbor table
   1  0.250  0.125  0.108-  67 1.96  68 1.96  83 1.96  84 1.96  65 2.00  66 2.00
   2  0.000  0.000  0.108-  65 1.96 113 1.96 130 1.96 177 1.96  80 2.00  71 2.00
   3  0.500  0.125  0.358- 135 1.96 136 1.96 151 1.96 152 1.96  69 2.00 134 2.00
   4  0.250  0.000  0.358-  69 1.96  70 1.96 117 1.96 118 1.96  68 2.00  75 2.00
   5  0.250  0.125  0.608-  75 1.96  76 1.96  91 1.96  92 1.96  73 2.00  74 2.00
   6  0.000  0.000  0.608-  73 1.96 121 1.96 138 1.96 185 1.96  79 2.00  72 2.00
   7  0.500  0.125  0.858- 143 1.96 144 1.96 159 1.96 160 1.96  77 2.00 142 2.00
   8  0.250  0.000  0.858-  77 1.96  78 1.96 125 1.96 126 1.96  67 2.00  76 2.00
   9  0.250  0.375  0.108-  83 1.96  84 1.96  99 1.96 100 1.96  81 2.00  82 2.00
  10  0.000  0.250  0.108-  65 1.96  81 1.96 130 1.96 146 1.96  87 2.00  96 2.00
  11  0.500  0.375  0.358- 151 1.96 152 1.96 167 1.96 150 2.00  85 2.00
  12  0.250  0.250  0.358-  69 1.96  70 1.96  85 1.96  86 1.96  84 2.00  91 2.00
  13  0.250  0.375  0.608-  91 1.96  92 1.96 107 1.96 108 1.96  89 2.00  90 2.00
  14  0.000  0.250  0.608-  73 1.96  89 1.96 138 1.96 154 1.96  88 2.00  95 2.00
  15  0.500  0.375  0.858- 159 1.96 160 1.96 174 1.96 175 1.96  93 2.00 158 2.00
  16  0.250  0.250  0.858-  77 1.96  78 1.96  93 1.96  94 1.96  83 2.00  92 2.00
  17  0.250  0.625  0.108-  99 1.96 100 1.96 115 1.96 116 1.96  97 2.00  98 2.00
  18  0.000  0.500  0.108-  81 1.96  97 1.96 146 1.96 162 1.96 103 2.00 112 2.00
  19  0.500  0.625  0.358- 167 1.96 182 1.96 183 1.96 166 2.00 101 2.00
  20  0.250  0.500  0.358-  85 1.96  86 1.96 101 1.96 102 1.96 100 2.00 107 2.00
  21  0.250  0.625  0.608- 107 1.96 108 1.96 123 1.96 124 1.96 105 2.00 106 2.00
  22  0.000  0.500  0.608-  89 1.96 105 1.96 154 1.96 169 1.96 104 2.00 111 2.00
  23  0.500  0.625  0.858- 174 1.96 175 1.96 190 1.96 191 1.96 109 2.00 173 2.00
  24  0.250  0.500  0.858-  93 1.96  94 1.96 109 1.96 110 1.96  99 2.00 108 2.00
  25  0.250  0.875  0.108-  67 1.96  68 1.96 115 1.96 116 1.96 113 2.00 114 2.00
  26  0.000  0.750  0.108-  97 1.96 113 1.96 162 1.96 177 1.96 119 2.00 128 2.00
  27  0.500  0.875  0.358- 135 1.96 136 1.96 182 1.96 183 1.96 117 2.00 181 2.00
  28  0.250  0.750  0.358- 101 1.96 102 1.96 117 1.96 118 1.96 116 2.00 123 2.00
  29  0.250  0.875  0.608-  75 1.96  76 1.96 123 1.96 124 1.96 121 2.00 122 2.00
  30  0.000  0.750  0.608- 105 1.96 121 1.96 169 1.96 185 1.96 120 2.00 127 2.00
  31  0.500  0.875  0.858- 143 1.96 144 1.96 190 1.96 191 1.96 125 2.00 189 2.00
  32  0.250  0.750  0.858- 109 1.96 110 1.96 125 1.96 126 1.96 115 2.00 124 2.00
  33  0.750  0.125  0.108- 131 1.96 132 1.96 147 1.96 148 1.96 129 2.00 130 2.00
  34  0.500  0.000  0.108-  66 1.96 114 1.96 129 1.96 176 1.96 144 2.00 135 2.00
  35  0.000  0.125  0.358-  71 1.96  72 1.96  87 1.96  88 1.96  70 2.00 133 2.00
  36  0.750  0.000  0.358- 133 1.96 134 1.96 180 1.96 181 1.96 132 2.00 139 2.00
  37  0.750  0.125  0.608- 139 1.96 140 1.96 155 1.96 156 1.96 137 2.00 138 2.00
  38  0.500  0.000  0.608-  74 1.96 122 1.96 137 1.96 184 1.96 143 2.00 136 2.00
  39  0.000  0.125  0.858-  79 1.96  80 1.96  95 1.96  96 1.96  78 2.00 141 2.00
  40  0.750  0.000  0.858- 141 1.96 142 1.96 188 1.96 189 1.96 131 2.00 140 2.00
  41  0.750  0.375  0.108- 147 1.96 148 1.96 163 1.96 164 1.96 145 2.00 146 2.00
  42  0.500  0.250  0.108-  66 1.96  82 1.96 129 1.96 145 1.96 151 2.00 160 2.00
  43  0.000  0.375  0.358-  87 1.96  88 1.96 103 1.96 104 1.96  86 2.00 149 2.00
  44  0.750  0.250  0.358- 133 1.96 134 1.96 149 1.96 150 1.96 148 2.00 155 2.00
  45  0.750  0.375  0.608- 155 1.96 156 1.96 170 1.96 171 1.96 153 2.00 154 2.00
  46  0.500  0.250  0.608-  74 1.96  90 1.96 137 1.96 153 1.96 152 2.00 159 2.00
  47  0.000  0.375  0.858-  95 1.96  96 1.96 111 1.96 112 1.96  94 2.00 157 2.00
  48  0.750  0.250  0.858- 141 1.96 142 1.96 157 1.96 158 1.96 147 2.00 156 2.00
  49  0.750  0.625  0.108- 163 1.96 164 1.96 178 1.96 179 1.96 161 2.00 162 2.00
  50  0.500  0.500  0.108-  82 1.96  98 1.96 145 1.96 161 1.96 167 2.00 175 2.00
  51  0.000  0.625  0.358- 103 1.96 104 1.96 119 1.96 120 1.96 102 2.00 165 2.00
  52  0.750  0.500  0.358- 149 1.96 150 1.96 165 1.96 166 1.96 164 2.00 170 2.00
  53  0.750  0.625  0.608- 170 1.96 171 1.96 186 1.96 187 1.96 168 2.00 169 2.00
  54  0.500  0.500  0.608-  90 1.96 106 1.96 153 1.96 168 1.96 174 2.00
  55  0.000  0.625  0.858- 111 1.96 112 1.96 127 1.96 128 1.96 110 2.00 172 2.00
  56  0.750  0.500  0.858- 157 1.96 158 1.96 172 1.96 173 1.96 163 2.00 171 2.00
  57  0.750  0.875  0.108- 131 1.96 132 1.96 178 1.96 179 1.96 176 2.00 177 2.00
  58  0.500  0.750  0.108-  98 1.96 114 1.96 161 1.96 176 1.96 182 2.00 191 2.00
  59  0.000  0.875  0.358-  71 1.96  72 1.96 119 1.96 120 1.96 118 2.00 180 2.00
  60  0.750  0.750  0.358- 165 1.96 166 1.96 180 1.96 181 1.96 179 2.00 186 2.00
[...]
 177  0.902  0.875  0.108-   2 1.96  26 1.96  57 2.00
 178  0.750  0.750  0.010-  49 1.96  57 1.96  64 2.00
 179  0.750  0.750  0.205-  49 1.96  57 1.96  60 2.00
 180  0.848  0.875  0.358-  36 1.96  60 1.96  59 2.00
 181  0.652  0.875  0.358-  36 1.96  60 1.96  27 2.00
 182  0.500  0.750  0.260-  19 1.96  27 1.96  58 2.00
 183  0.500  0.750  0.455-  19 1.96  27 1.96  62 2.00
 184  0.598  0.875  0.608-  38 1.96  62 1.96  61 2.00
 185  0.902  0.875  0.608-   6 1.96  30 1.96  61 2.00
 186  0.750  0.750  0.510-  53 1.96  61 1.96  60 2.00
 187  0.750  0.750  0.705-  53 1.96  61 1.96  64 2.00
 188  0.848  0.875  0.858-  40 1.96  64 1.96  63 2.00
 189  0.652  0.875  0.858-  40 1.96  64 1.96  31 2.00
 190  0.500  0.750  0.760-  23 1.96  31 1.96  62 2.00
 191  0.500  0.750  0.955-  23 1.96  31 1.96  58 2.00

IMPORTANT INFORMATION: All symmetrisations will be switched off!
NOSYMM: (Re-)initialisation of all symmetry stuff for point group C_1.

                                     Primitive cell

  volume of cell :    2050.2916

  direct lattice vectors                    reciprocal lattice vectors
    13.143474388  0.000000000  0.000000000     0.076083383  0.000000000  0.000000000
     0.000000000 11.868484200  0.000000000     0.000000000  0.084256758  0.000000000
     0.000000000  0.000000000 13.143474388     0.000000000  0.000000000  0.076083383

  length of vectors
    13.143474388 11.868484200 13.143474388     0.076083383  0.084256758  0.076083383

  position of ions in fractional coordinates (direct lattice)
     0.250000000  0.125000000  0.107598153
     0.000000000  0.000000000  0.107598153
     0.500000000  0.125000000  0.357598153
     0.250000000  0.000000000  0.357598153
     0.250000000  0.125000000  0.607598153
     0.000000000  0.000000000  0.607598153
     0.500000000  0.125000000  0.857598153
     0.250000000  0.000000000  0.857598153
     0.250000000  0.375000000  0.107598153
     0.000000000  0.250000000  0.107598153
     0.500000000  0.375000000  0.357598153
     0.250000000  0.250000000  0.357598153
     0.250000000  0.375000000  0.607598153
     0.000000000  0.250000000  0.607598153
     0.500000000  0.375000000  0.857598153
     0.250000000  0.250000000  0.857598153
     0.250000000  0.625000000  0.107598153
     0.000000000  0.500000000  0.107598153
     0.500000000  0.625000000  0.357598153
     0.250000000  0.500000000  0.357598153
     0.250000000  0.625000000  0.607598153
     0.000000000  0.500000000  0.607598153
     0.500000000  0.625000000  0.857598153
     0.250000000  0.500000000  0.857598153
     0.250000000  0.875000000  0.107598153
     0.000000000  0.750000000  0.107598153
     0.500000000  0.875000000  0.357598153
     0.250000000  0.750000000  0.357598153
     0.250000000  0.875000000  0.607598153
     0.000000000  0.750000000  0.607598153
     0.500000000  0.875000000  0.857598153
     0.250000000  0.750000000  0.857598153
     0.750000000  0.125000000  0.107598153
     0.500000000  0.000000000  0.107598153
     0.000000000  0.125000000  0.357598153
     0.750000000  0.000000000  0.357598153
     0.750000000  0.125000000  0.607598153
     0.500000000  0.000000000  0.607598153
     0.000000000  0.125000000  0.857598153
     0.750000000  0.000000000  0.857598153
     0.750000000  0.375000000  0.107598153
     0.500000000  0.250000000  0.107598153
     0.000000000  0.375000000  0.357598153
     0.750000000  0.250000000  0.357598153
     0.750000000  0.375000000  0.607598153
     0.500000000  0.250000000  0.607598153
     0.000000000  0.375000000  0.857598153
     0.750000000  0.250000000  0.857598153
     0.750000000  0.625000000  0.107598153
     0.500000000  0.500000000  0.107598153
     0.000000000  0.625000000  0.357598153
     0.750000000  0.500000000  0.357598153
     0.750000000  0.625000000  0.607598153
     0.500000000  0.500000000  0.607598153
[...]
   -.117E+02 0.847E-03 0.113E+02   0.117E+02 -.330E-12 -.112E+02   -.464E-02 0.576E-04 -.851E-04   -.273E-03 -.102E-02 -.742E-02
   -.755E+01 0.506E+01 -.788E+01   0.759E+01 -.504E+01 0.787E+01   -.110E-01 -.268E-01 0.198E-02   -.172E-02 -.366E-02 -.132E-02
   0.326E-03 0.383E+01 -.559E+01   0.111E-11 -.380E+01 0.559E+01   0.763E-05 -.369E-02 -.128E-01   -.285E-03 -.532E-02 0.280E-03
   -.766E-03 0.305E+02 -.133E+02   0.215E-12 -.302E+02 0.131E+02   -.409E-04 -.115E+00 0.974E-02   0.880E-03 -.165E-01 0.179E-02
   -.299E+02 0.247E+02 -.125E+02   0.297E+02 -.245E+02 0.125E+02   0.627E-01 -.551E-01 -.163E-02   0.504E-02 -.160E-01 0.752E-02
   -.142E+02 0.114E+02 0.951E+01   0.142E+02 -.114E+02 -.951E+01   0.248E-01 -.332E-01 -.598E-02   0.962E-03 -.403E-02 0.159E-02
   -.196E-03 0.645E+01 0.613E+01   0.105E-11 -.641E+01 -.614E+01   -.224E-04 -.750E-02 -.797E-02   0.253E-03 -.313E-02 -.677E-03
   -.218E-04 0.630E+01 0.820E+01   0.853E-13 -.635E+01 -.810E+01   0.164E-04 -.420E-02 -.268E-01   0.986E-05 0.298E-02 -.772E-02
   -.843E+01 0.611E+01 0.754E+01   0.845E+01 -.611E+01 -.746E+01   -.420E-02 0.207E-02 -.326E-01   -.200E-02 -.299E-03 -.620E-02
   0.755E+01 -.506E+01 -.788E+01   -.759E+01 0.504E+01 0.787E+01   0.110E-01 0.269E-01 0.205E-02   0.638E-03 0.370E-02 -.153E-02
   -.475E-03 -.204E-02 -.966E+01   0.636E-12 -.135E-12 0.964E+01   -.724E-04 -.783E-04 0.275E-01   0.617E-03 0.223E-02 -.181E-02
   0.903E-03 -.472E+01 -.349E+01   -.741E-13 0.472E+01 0.347E+01   0.107E-03 0.179E-01 0.120E-02   -.111E-02 0.241E-02 0.528E-02
   0.121E+02 0.789E-03 -.547E+01   -.120E+02 -.817E-13 0.541E+01   -.707E-02 0.123E-03 0.420E-01   0.314E-02 -.940E-03 0.531E-02
   0.142E+02 -.114E+02 0.951E+01   -.142E+02 0.114E+02 -.951E+01   -.248E-01 0.334E-01 -.593E-02   -.172E-02 0.302E-02 0.614E-03
   -.113E-03 -.941E-03 0.117E+02   0.604E-12 -.462E-13 -.116E+02   0.183E-04 0.570E-05 0.262E-01   0.871E-04 0.932E-03 0.538E-02
   -.161E-03 -.232E+01 0.320E+01   0.105E-12 0.231E+01 -.318E+01   -.378E-04 0.205E-01 -.818E-02   0.254E-03 0.229E-02 -.436E-02
   0.579E+01 -.547E-03 0.462E+01   -.579E+01 0.959E-13 -.456E+01   0.157E-02 0.164E-04 0.113E-01   0.208E-03 0.565E-03 -.520E-02
   0.138E+02 -.605E+01 -.156E+02   -.138E+02 0.602E+01 0.156E+02   0.118E-01 -.163E-01 0.105E-01   -.653E-03 0.511E-02 0.364E-02
   -.113E-03 -.138E+02 -.204E+02   0.311E-12 0.138E+02 0.202E+02   0.638E-04 0.166E-02 0.899E-01   0.125E-04 0.489E-02 0.114E-01
   0.911E-03 -.530E+01 -.549E+01   0.808E-13 0.529E+01 0.546E+01   0.830E-04 -.196E-01 0.869E-02   -.107E-02 0.619E-02 0.397E-02
   0.299E+02 -.247E+02 -.125E+02   -.297E+02 0.245E+02 0.125E+02   -.627E-01 0.551E-01 -.160E-02   -.563E-02 0.156E-01 0.688E-02
   0.428E+02 -.191E+02 0.271E+02   -.424E+02 0.190E+02 -.270E+02   -.102E+00 -.821E-02 -.141E-01   -.992E-02 0.140E-01 -.103E-01
   -.179E-03 -.589E+02 0.428E+02   0.719E-12 0.584E+02 -.426E+02   0.397E-05 0.104E+00 -.115E+00   0.142E-03 0.212E-01 -.768E-02
   0.877E-04 -.241E+01 0.460E+01   0.220E-12 0.240E+01 -.458E+01   0.497E-04 -.180E-01 -.865E-02   -.148E-03 0.157E-02 -.344E-02
   0.843E+01 -.611E+01 0.754E+01   -.845E+01 0.611E+01 -.746E+01   0.424E-02 -.207E-02 -.326E-01   -.768E-04 0.415E-03 -.476E-02
   0.138E+02 0.605E+01 -.156E+02   -.138E+02 -.602E+01 0.156E+02   0.118E-01 0.163E-01 0.105E-01   0.606E-03 -.546E-02 0.464E-02
   -.624E-03 0.262E-02 -.383E+02   0.639E-12 -.284E-13 0.379E+02   -.592E-04 0.133E-03 0.221E+00   0.716E-03 -.293E-02 0.156E-01
   0.104E-02 0.530E+01 -.549E+01   -.999E-13 -.529E+01 0.546E+01   0.704E-04 0.196E-01 0.862E-02   -.118E-02 -.515E-02 0.440E-02
   0.710E+02 -.125E-02 -.287E+02   -.707E+02 -.277E-12 0.286E+02   -.170E+00 -.808E-04 0.111E+00   -.270E-01 0.145E-02 0.166E-01
   0.428E+02 0.191E+02 0.271E+02   -.424E+02 -.190E+02 -.270E+02   -.102E+00 0.820E-02 -.140E-01   -.976E-02 -.140E-01 -.113E-01
   0.362E-03 0.486E-03 0.258E+03   0.973E-12 0.746E-13 -.254E+03   0.107E-03 -.103E-03 -.289E+01   -.577E-03 -.321E-03 -.648E-01
   0.178E-04 0.241E+01 0.460E+01   -.767E-13 -.240E+01 -.458E+01   -.315E-05 0.181E-01 -.857E-02   -.440E-04 -.205E-02 -.386E-02
   0.117E+02 0.552E-03 0.113E+02   -.117E+02 -.313E-12 -.112E+02   0.460E-02 -.251E-04 -.145E-03   0.218E-03 -.617E-03 -.642E-02
   0.755E+01 0.506E+01 -.788E+01   -.759E+01 -.504E+01 0.787E+01   0.110E-01 -.267E-01 0.207E-02   0.158E-02 -.369E-02 -.922E-03
   -.581E-03 0.138E+02 -.204E+02   -.401E-12 -.138E+02 0.202E+02   -.664E-04 -.171E-02 0.899E-01   0.656E-03 -.428E-02 0.129E-01
   0.105E-02 0.472E+01 -.349E+01   -.121E-13 -.472E+01 0.347E+01   0.796E-04 -.180E-01 0.114E-02   -.122E-02 -.325E-02 0.573E-02
   0.299E+02 0.247E+02 -.125E+02   -.297E+02 -.245E+02 0.125E+02   -.628E-01 -.552E-01 -.153E-02   -.453E-02 -.160E-01 0.674E-02
[...]
   0.376E+01 0.269E+01 0.638E+02   -.378E+01 -.268E+01 -.684E+02   0.164E-01 -.173E-01 0.459E+01   0.235E-02 -.226E-02 -.491E-03
   0.817E+01 0.646E+01 -.741E+02   -.814E+01 -.640E+01 0.787E+02   -.386E-01 -.694E-01 -.456E+01   0.575E-03 -.552E-02 0.179E-02
   -.603E+02 0.386E+01 -.241E+01   0.649E+02 -.384E+01 0.238E+01   -.465E+01 -.372E-01 0.351E-01   0.175E-02 -.981E-03 0.240E-02
   0.737E+02 0.108E+02 -.507E+01   -.783E+02 -.107E+02 0.503E+01   0.455E+01 -.518E-01 0.417E-01   0.671E-02 -.415E-02 0.260E-02
   -.296E-03 0.218E+02 0.458E+02   -.942E-13 -.215E+02 -.504E+02   0.704E-04 -.441E+00 0.455E+01   0.211E-03 -.140E-01 0.196E-02
   -.239E-03 0.545E+02 -.662E+02   -.118E-12 -.541E+02 0.706E+02   -.496E-04 -.661E+00 -.434E+01   0.271E-03 -.204E-01 0.116E-01
   -.609E+02 0.108E+02 0.773E+01   0.655E+02 -.107E+02 -.771E+01   -.468E+01 -.118E+00 -.368E-01   0.153E-02 -.102E-02 0.775E-03
   0.694E+02 0.266E+01 0.278E+01   -.740E+02 -.266E+01 -.278E+01   0.459E+01 -.164E-01 -.300E-02   0.156E-02 -.106E-02 0.523E-05
   0.163E+02 0.135E+02 0.698E+02   -.163E+02 -.135E+02 -.744E+02   -.112E+00 -.805E-01 0.465E+01   -.204E-02 -.439E-02 0.420E-03
   0.821E+01 0.642E+01 -.578E+02   -.814E+01 -.640E+01 0.624E+02   -.939E-01 -.578E-01 -.468E+01   -.206E-03 -.194E-03 -.196E-02
   -.634E+02 0.151E+01 0.204E+01   0.680E+02 -.150E+01 -.202E+01   -.462E+01 -.585E-02 -.333E-01   0.117E-02 -.645E-03 -.198E-02
   0.687E+02 0.265E+01 0.346E+01   -.734E+02 -.266E+01 -.342E+01   0.463E+01 -.306E-02 -.511E-01   0.206E-02 0.362E-03 -.286E-02
   0.159E-03 0.933E+01 0.792E+02   -.171E-12 -.933E+01 -.837E+02   0.318E-04 0.164E-01 0.431E+01   -.186E-03 0.134E-02 -.802E-02
   -.809E-04 0.372E+01 -.660E+02   -.128E-12 -.378E+01 0.706E+02   0.511E-06 0.867E-01 -.463E+01   0.844E-04 0.351E-02 -.216E-02
   -.544E-03 0.645E-03 -.455E+01   0.195E-11 -.260E-11 -.141E-11   -.897E-03 0.193E-03 0.451E+01   0.145E-02 -.118E-02 0.109E-01

 POSITION                                       TOTAL-FORCE (eV/Angst)
      3.28587      1.48356      1.41421         0.030828      0.005004     -0.010201
      0.00000      0.00000      1.41421        -0.000015      0.000010      0.028516
      6.57174      1.48356      4.70008         0.000078     -0.176254     -0.109259
      3.28587      0.00000      4.70008        -0.014399     -0.000020     -0.017445
      3.28587      1.48356      7.98595        -0.047415     -0.016226     -0.001673
      0.00000      0.00000      7.98595         0.000012     -0.000017      0.020435
      6.57174      1.48356     11.27182        -0.000053      0.043196      0.070025
      3.28587      0.00000     11.27182         0.001934      0.000089      0.060675
      3.28587      4.45068      1.41421         0.027406     -0.035489     -0.029236
      0.00000      2.96712      1.41421        -0.000024     -0.013464     -0.008302
      6.57174      4.45068      4.70008         0.000080     -0.985212     -0.588829
      3.28587      2.96712      4.70008        -0.118891     -0.089810     -0.039918
      3.28587      4.45068      7.98595        -0.234196     -0.073480      0.035729
      0.00000      2.96712      7.98595         0.000014     -0.025479     -0.015039
      6.57174      4.45068     11.27182        -0.000032      0.036274      0.124351
      3.28587      2.96712     11.27182         0.008178      0.003325      0.041497
      3.28587      7.41780      1.41421         0.027293      0.035467     -0.029238
      0.00000      5.93424      1.41421        -0.000017      0.000001      0.028577
      6.57174      7.41780      4.70008         0.000038      0.984691     -0.589008
      3.28587      5.93424      4.70008        -0.042336      0.000042      0.021747
      3.28587      7.41780      7.98595        -0.234170      0.073572      0.035715
      0.00000      5.93424      7.98595         0.000047      0.000017      0.024231
      6.57174      7.41780     11.27182        -0.000007     -0.036515      0.124277
      3.28587      5.93424     11.27182         0.017843     -0.000115      0.080531
      3.28587     10.38492      1.41421         0.030805     -0.004968     -0.010131
      0.00000      8.90136      1.41421         0.000049      0.013454     -0.008261
      6.57174     10.38492      4.70008         0.000072      0.176416     -0.109118
      3.28587      8.90136      4.70008        -0.118962      0.089703     -0.039862
      3.28587     10.38492      7.98595        -0.047480      0.016148     -0.001752
      0.00000      8.90136      7.98595         0.000035      0.025469     -0.015122
      6.57174     10.38492     11.27182         0.000004     -0.042939      0.069935
      3.28587      8.90136     11.27182         0.008054     -0.003314      0.041434
      9.85761      1.48356      1.41421        -0.030914      0.004964     -0.010095
      6.57174      0.00000      1.41421         0.000069      0.000121      0.004826
      0.00000      1.48356      4.70008        -0.000100      0.018822     -0.015211
      9.85761      0.00000      4.70008         0.014341     -0.000026     -0.017497
      9.85761      1.48356      7.98595         0.047449     -0.016254     -0.001785
      6.57174      0.00000      7.98595        -0.000008     -0.000002      0.052550
      0.00000      1.48356     11.27182         0.000055      0.015635      0.011121
      9.85761      0.00000     11.27182        -0.001943      0.000036      0.060746
      9.85761      4.45068      1.41421        -0.027355     -0.035461     -0.029251
      6.57174      2.96712      1.41421        -0.000036      0.026213     -0.094891
      0.00000      4.45068      4.70008        -0.000071     -0.024603     -0.015163
      9.85761      2.96712      4.70008         0.118955     -0.089892     -0.039944
      9.85761      4.45068      7.98595         0.234215     -0.073549      0.035697
      6.57174      2.96712      7.98595        -0.000032     -0.336150      0.075774
      0.00000      4.45068     11.27182        -0.000011     -0.023541      0.011400
      9.85761      2.96712     11.27182        -0.008184      0.003376      0.041545
      9.85761      7.41780      1.41421        -0.027257      0.035512     -0.029187
      6.57174      5.93424      1.41421         0.000032     -0.000172     -0.214225
      0.00000      7.41780      4.70008        -0.000072      0.024718     -0.015192
      9.85761      5.93424      4.70008         0.042363      0.000125      0.021646
      9.85761      7.41780      7.98595         0.234212      0.073566      0.035720
      6.57174      5.93424      7.98595        -0.000108      0.000063      1.240830
      0.00000      7.41780     11.27182        -0.000029      0.023532      0.011463
      9.85761      5.93424     11.27182        -0.017850     -0.000088      0.080610
      9.85761     10.38492      1.41421        -0.030746     -0.005012     -0.010079
      6.57174      8.90136      1.41421         0.000008     -0.026194     -0.094877
      0.00000     10.38492      4.70008        -0.000090     -0.018921     -0.015179
      9.85761      8.90136      4.70008         0.119002      0.089811     -0.039966
[...]
     11.86195     10.38492      1.41421         0.011258     -0.006058     -0.003876
      9.85761      8.90136      0.13269         0.003543     -0.009571     -0.008310
      9.85761      8.90136      2.69574        -0.007330     -0.021683      0.037688
     11.13913     10.38492      4.70008        -0.015886     -0.016069      0.007298
      8.57608     10.38492      4.70008        -0.037294     -0.018667      0.004906
      6.57174      8.90136      3.41855        -0.000015     -0.149282      0.001282
      6.57174      8.90136      5.98161        -0.000018     -0.303788      0.060277
      7.85327     10.38492      7.98595        -0.046293     -0.062790     -0.016950
     11.86195     10.38492      7.98595        -0.012035     -0.008128     -0.003753
      9.85761      8.90136      6.70442        -0.027551     -0.036292      0.024199
      9.85761      8.90136      9.26748        -0.025928     -0.037867     -0.041554
     11.13913     10.38492     11.27182        -0.004677     -0.004301     -0.011124
      8.57608     10.38492     11.27182         0.009549     -0.003280     -0.014823
      6.57174      8.90136      9.99029         0.000004      0.009920     -0.196565
      6.57174      8.90136     12.55335         0.000004      0.032889     -0.013765
    total drift:                                0.000008     -0.000340     -0.024870

  FREE ENERGIE OF THE ION-ELECTRON SYSTEM (eV)
  free  energy   TOTEN  =     -1707.23683804 eV

  energy  without entropy=    -1707.23255337  energy(sigma->0) =    -1707.23469571

 total charge

# of ion       s       p       d       tot
    1        2.215   6.285   1.692  10.192
    2        2.215   6.285   1.692  10.192
    3        2.214   6.284   1.696  10.194
    4        2.215   6.285   1.693  10.193
    5        2.215   6.285   1.692  10.192
    6        2.215   6.285   1.692  10.192
    7        2.215   6.285   1.692  10.192
    8        2.215   6.285   1.692  10.192
    9        2.215   6.285   1.692  10.192
   10        2.215   6.285   1.692  10.192
   11        2.205   6.244   1.706  10.154
   12        2.215   6.284   1.695  10.194
   13        2.215   6.285   1.693  10.193
   14        2.215   6.285   1.692  10.192
   15        2.215   6.283   1.700  10.198
   16        2.215   6.285   1.692  10.192
   17        2.215   6.285   1.692  10.192
   18        2.215   6.285   1.692  10.192
   19        2.205   6.244   1.706  10.154
   20        2.215   6.285   1.695  10.195
   21        2.215   6.285   1.693  10.193
   22        2.215   6.285   1.692  10.192
   23        2.215   6.283   1.701  10.199
   24        2.215   6.285   1.692  10.192
   25        2.215   6.285   1.692  10.192
   26        2.215   6.285   1.692  10.192
   27        2.214   6.284   1.696  10.194
   28        2.215   6.284   1.695  10.194
   29        2.215   6.285   1.692  10.192
   30        2.215   6.285   1.692  10.192
   31        2.215   6.285   1.692  10.192
   32        2.215   6.285   1.692  10.192
   33        2.215   6.285   1.692  10.192
   34        2.215   6.285   1.692  10.192
   35        2.215   6.285   1.692  10.192
   36        2.215   6.285   1.693  10.193
   37        2.215   6.285   1.692  10.192
   38        2.215   6.285   1.692  10.192
   39        2.215   6.285   1.692  10.192
   40        2.215   6.285   1.692  10.192
   41        2.215   6.285   1.692  10.192
   42        2.215   6.284   1.699  10.198
   43        2.215   6.285   1.692  10.192
   44        2.215   6.284   1.695  10.194
   45        2.215   6.285   1.693  10.193
   46        2.215   6.285   1.691  10.191
   47        2.215   6.285   1.692  10.192
   48        2.215   6.285   1.692  10.192
   49        2.215   6.285   1.692  10.192
   50        2.215   6.284   1.696  10.194
   51        2.215   6.285   1.692  10.192
   52        2.215   6.285   1.695  10.195
   53        2.215   6.285   1.693  10.193
   54        2.207   6.247   1.716  10.170
   55        2.215   6.285   1.692  10.192
   56        2.215   6.285   1.692  10.192
   57        2.215   6.285   1.692  10.192
   58        2.215   6.284   1.699  10.198
   59        2.215   6.285   1.692  10.192
   60        2.215   6.284   1.695  10.194
[...]
  177        1.573   3.489   0.000   5.062
  178        1.573   3.489   0.000   5.062
  179        1.573   3.489   0.000   5.062
  180        1.573   3.489   0.000   5.062
  181        1.573   3.489   0.000   5.062
  182        1.576   3.478   0.000   5.054
  183        1.573   3.489   0.000   5.063
  184        1.573   3.488   0.000   5.062
  185        1.573   3.489   0.000   5.062
  186        1.573   3.489   0.000   5.062
  187        1.573   3.489   0.000   5.062
  188        1.573   3.489   0.000   5.062
  189        1.573   3.489   0.000   5.062
  190        1.573   3.490   0.000   5.063
  191        1.573   3.488   0.000   5.061
tot        341.533 845.143 108.3971295.073