 vasp.6.2.0 18Jan21 (build Mar 03 2021 13:27:41) complex

 executed on             LinuxIFC date 2021.07.15  16:18:27

 INCAR:
   SYSTEM = TiO2-rutile
   ISMEAR = 0
   SIGMA = 0.05
   EDIFF = 1E-5
   ALGO = Fast
   ISTART = 1
   ISYM = 0
   METAGGA = R2SCAN
   IBRION = -1
   NSW = 0
   EDIFFG = -0.01
   ENCUT = 500
   PREC = Accurate
   LASPH = .TRUE.
   LREAL = Auto
   ISPIN = 1
   NELM = 500
   NELMIN = 4
   NCORE = 20
   LWAVE = .FALSE.
   LCHARG = .FALSE.
   LORBIT = 11

 POTCAR:    PAW_PBE Ti_sv 26Sep2005
 POTCAR:    PAW_PBE O 08Apr2002
 POTCAR:    PAW_PBE Ti_sv 26Sep2005
   VRHFIN =Ti: 3p4s3d

   TITEL  = PAW_PBE Ti_sv 26Sep2005
   POMASS =   47.880; ZVAL   =   12.000    mass and valenz
   ENMAX  =  274.610; ENMIN  =  205.957 eV

   TITEL  = PAW_PBE O 08Apr2002
   POMASS =   16.000; ZVAL   =    6.000    mass and valenz
   ENMAX  =  400.000; ENMIN  =  300.000 eV

 Optimization of the real space projectors (new method)

 maximal supplied QI-value         = 16.25
 optimisation between [QCUT,QGAM] = [ 11.38, 22.75] = [ 36.24,144.96] Ry
 Optimized for a Real-space Cutoff    1.27 Angstroem

   l    n(q)    QCUT    max X(q) W(low)/X(q) W(high)/X(q)  e(spline)
   0      9    11.376    12.277    0.53E-04    0.25E-04    0.25E-07
   0      9    11.376    11.419    0.89E-04    0.67E-05    0.35E-07
   1      8    11.376     4.010    0.13E-03    0.11E-03    0.29E-07
   1      8    11.376     6.182    0.94E-04    0.19E-03    0.11E-06
   2      8    11.376    47.177    0.13E-03    0.88E-03    0.24E-06
   2      8    11.376    42.437    0.13E-03    0.86E-03    0.23E-06
 Optimization of the real space projectors (new method)

 maximal supplied QI-value         = 24.76
 optimisation between [QCUT,QGAM] = [ 11.39, 22.77] = [ 36.31,145.25] Ry
 Optimized for a Real-space Cutoff    1.10 Angstroem

   l    n(q)    QCUT    max X(q) W(low)/X(q) W(high)/X(q)  e(spline)
   0      7    11.387    20.381    0.22E-03    0.48E-03    0.18E-06
   0      7    11.387    15.268    0.22E-03    0.52E-03    0.19E-06
   1      7    11.387     5.964    0.22E-03    0.73E-03    0.24E-06
   1      7    11.387     5.382    0.19E-03    0.60E-03    0.21E-06
  PAW_PBE Ti_sv 26Sep2005               :
  PAW_PBE O 08Apr2002                   :

 POSCAR: Ti  O
  positions in direct lattice
  velocities in cartesian coordinates

 METAGGA = R2SCA    LMAXTAU =  6    LMIXTAU =  F

 ion  position               nearest neighbor table
   1  0.250  0.125  0.109-  67 1.95  68 1.95  83 1.95  84 1.95  65 1.98  66 1.98
   2  0.000  0.000  0.109-  65 1.95 113 1.95 130 1.95 177 1.95  80 1.98  71 1.98
   3  0.000  0.125  0.359-  71 1.95  72 1.95  87 1.95  88 1.95  70 1.98 133 1.98
   4  0.250  0.000  0.359-  69 1.95  70 1.95 117 1.95 118 1.95  68 1.98  75 1.98
   5  0.250  0.125  0.609-  75 1.95  76 1.95  91 1.95  92 1.95  73 1.98  74 1.98
   6  0.000  0.000  0.609-  73 1.95 121 1.95 138 1.95 185 1.95  79 1.98  72 1.98
   7  0.000  0.125  0.859-  79 1.95  80 1.95  95 1.95  96 1.95  78 1.98 141 1.98
   8  0.250  0.000  0.859-  77 1.95  78 1.95 125 1.95 126 1.95  67 1.98  76 1.98
   9  0.250  0.375  0.109-  83 1.95  84 1.95  99 1.95 100 1.95  81 1.98  82 1.98
  10  0.000  0.250  0.109-  65 1.95  81 1.95 130 1.95 146 1.95  87 1.98  96 1.98
  11  0.000  0.375  0.359-  87 1.95  88 1.95 103 1.95 104 1.95  86 1.98 149 1.98
  12  0.250  0.250  0.359-  69 1.95  70 1.95  85 1.95  86 1.95  84 1.98  91 1.98
  13  0.250  0.375  0.609-  91 1.95  92 1.95 107 1.95 108 1.95  89 1.98  90 1.98
  14  0.000  0.250  0.609-  73 1.95  89 1.95 138 1.95 154 1.95  88 1.98  95 1.98
  15  0.000  0.375  0.859-  95 1.95  96 1.95 111 1.95 112 1.95  94 1.98 157 1.98
  16  0.250  0.250  0.859-  77 1.95  78 1.95  93 1.95  94 1.95  83 1.98  92 1.98
  17  0.250  0.625  0.109-  99 1.95 100 1.95 115 1.95 116 1.95  97 1.98  98 1.98
  18  0.000  0.500  0.109-  81 1.95  97 1.95 146 1.95 162 1.95 103 1.98 112 1.98
  19  0.000  0.625  0.359- 103 1.95 104 1.95 119 1.95 120 1.95 102 1.98 165 1.98
  20  0.250  0.500  0.359-  85 1.95  86 1.95 101 1.95 102 1.95 100 1.98 107 1.98
  21  0.250  0.625  0.609- 107 1.95 108 1.95 123 1.95 124 1.95 105 1.98 106 1.98
  22  0.000  0.500  0.609-  89 1.95 105 1.95 154 1.95 169 1.95 104 1.98 111 1.98
  23  0.000  0.625  0.859- 111 1.95 112 1.95 127 1.95 128 1.95 110 1.98 172 1.98
  24  0.250  0.500  0.859-  93 1.95  94 1.95 109 1.95 110 1.95  99 1.98 108 1.98
  25  0.250  0.875  0.109-  67 1.95  68 1.95 115 1.95 116 1.95 113 1.98 114 1.98
  26  0.000  0.750  0.109-  97 1.95 113 1.95 162 1.95 177 1.95 119 1.98 128 1.98
  27  0.000  0.875  0.359-  71 1.95  72 1.95 119 1.95 120 1.95 118 1.98 180 1.98
  28  0.250  0.750  0.359- 101 1.95 102 1.95 117 1.95 118 1.95 116 1.98 123 1.98
  29  0.250  0.875  0.609-  75 1.95  76 1.95 123 1.95 124 1.95 121 1.98 122 1.98
  30  0.000  0.750  0.609- 105 1.95 121 1.95 169 1.95 185 1.95 120 1.98 127 1.98
  31  0.000  0.875  0.859-  79 1.95  80 1.95 127 1.95 128 1.95 126 1.98 188 1.98
  32  0.250  0.750  0.859- 109 1.95 110 1.95 125 1.95 126 1.95 115 1.98 124 1.98
  33  0.750  0.125  0.109- 131 1.95 132 1.95 147 1.95 148 1.95 129 1.98 130 1.98
  34  0.500  0.000  0.109-  66 1.95 114 1.95 129 1.95 176 1.95 144 1.98 135 1.98
  35  0.500  0.125  0.359- 135 1.95 136 1.95 151 1.95 152 1.95  69 1.98 134 1.98
  36  0.750  0.000  0.359- 133 1.95 134 1.95 180 1.95 181 1.95 132 1.98 139 1.98
  37  0.750  0.125  0.609- 139 1.95 140 1.95 155 1.95 156 1.95 137 1.98 138 1.98
  38  0.500  0.000  0.609-  74 1.95 122 1.95 137 1.95 184 1.95 143 1.98 136 1.98
  39  0.500  0.125  0.859- 143 1.95 144 1.95 159 1.95 160 1.95  77 1.98 142 1.98
  40  0.750  0.000  0.859- 141 1.95 142 1.95 188 1.95 189 1.95 131 1.98 140 1.98
  41  0.750  0.375  0.109- 147 1.95 148 1.95 163 1.95 164 1.95 145 1.98 146 1.98
  42  0.500  0.250  0.109-  66 1.95  82 1.95 129 1.95 145 1.95 151 1.98 160 1.98
  43  0.500  0.375  0.359- 151 1.95 152 1.95 167 1.95 150 1.98  85 1.98
  44  0.750  0.250  0.359- 133 1.95 134 1.95 149 1.95 150 1.95 148 1.98 155 1.98
  45  0.750  0.375  0.609- 155 1.95 156 1.95 170 1.95 171 1.95 153 1.98 154 1.98
  46  0.500  0.250  0.609-  74 1.95  90 1.95 137 1.95 153 1.95 152 1.98 159 1.98
  47  0.500  0.375  0.859- 159 1.95 160 1.95 174 1.95 175 1.95  93 1.98 158 1.98
  48  0.750  0.250  0.859- 141 1.95 142 1.95 157 1.95 158 1.95 147 1.98 156 1.98
  49  0.750  0.625  0.109- 163 1.95 164 1.95 178 1.95 179 1.95 161 1.98 162 1.98
  50  0.500  0.500  0.109-  82 1.95  98 1.95 145 1.95 161 1.95 167 1.98 175 1.98
  51  0.500  0.625  0.359- 167 1.95 182 1.95 183 1.95 166 1.98 101 1.98
  52  0.750  0.500  0.359- 149 1.95 150 1.95 165 1.95 166 1.95 164 1.98 170 1.98
  53  0.750  0.625  0.609- 170 1.95 171 1.95 186 1.95 187 1.95 168 1.98 169 1.98
  54  0.500  0.500  0.609-  90 1.95 106 1.95 153 1.95 168 1.95 174 1.98
  55  0.500  0.625  0.859- 174 1.95 175 1.95 190 1.95 191 1.95 109 1.98 173 1.98
  56  0.750  0.500  0.859- 157 1.95 158 1.95 172 1.95 173 1.95 163 1.98 171 1.98
  57  0.750  0.875  0.109- 131 1.95 132 1.95 178 1.95 179 1.95 176 1.98 177 1.98
  58  0.500  0.750  0.109-  98 1.95 114 1.95 161 1.95 176 1.95 182 1.98 191 1.98
  59  0.500  0.875  0.359- 135 1.95 136 1.95 182 1.95 183 1.95 117 1.98 181 1.98
  60  0.750  0.750  0.359- 165 1.95 166 1.95 180 1.95 181 1.95 179 1.98 186 1.98
[...]
 177  0.902  0.875  0.109-   2 1.95  26 1.95  57 1.98
 178  0.750  0.750  0.011-  49 1.95  57 1.95  64 1.98
 179  0.750  0.750  0.206-  49 1.95  57 1.95  60 1.98
 180  0.848  0.875  0.359-  36 1.95  60 1.95  27 1.98
 181  0.652  0.875  0.359-  36 1.95  60 1.95  59 1.98
 182  0.500  0.750  0.261-  51 1.95  59 1.95  58 1.98
 183  0.500  0.750  0.456-  51 1.95  59 1.95  62 1.98
 184  0.598  0.875  0.609-  38 1.95  62 1.95  61 1.98
 185  0.902  0.875  0.609-   6 1.95  30 1.95  61 1.98
 186  0.750  0.750  0.511-  53 1.95  61 1.95  60 1.98
 187  0.750  0.750  0.706-  53 1.95  61 1.95  64 1.98
 188  0.848  0.875  0.859-  40 1.95  64 1.95  31 1.98
 189  0.652  0.875  0.859-  40 1.95  64 1.95  63 1.98
 190  0.500  0.750  0.761-  55 1.95  63 1.95  62 1.98
 191  0.500  0.750  0.956-  55 1.95  63 1.95  58 1.98

IMPORTANT INFORMATION: All symmetrisations will be switched off!
NOSYMM: (Re-)initialisation of all symmetry stuff for point group C_1.

                                     Primitive cell

  volume of cell :    2006.6520

  direct lattice vectors                    reciprocal lattice vectors
    13.016074892  0.000000000  0.000000000     0.076828077  0.000000000  0.000000000
     0.000000000 11.844370774  0.000000000     0.000000000  0.084428292  0.000000000
     0.000000000  0.000000000 13.016074892     0.000000000  0.000000000  0.076828077

  length of vectors
    13.016074892 11.844370774 13.016074892     0.076828077  0.084428292  0.076828077

  position of ions in fractional coordinates (direct lattice)
     0.250000000  0.125000000  0.108651308
     0.000000000  0.000000000  0.108651308
     0.000000000  0.125000000  0.358651308
     0.250000000  0.000000000  0.358651308
     0.250000000  0.125000000  0.608651308
     0.000000000  0.000000000  0.608651308
     0.000000000  0.125000000  0.858651308
     0.250000000  0.000000000  0.858651308
     0.250000000  0.375000000  0.108651308
     0.000000000  0.250000000  0.108651308
     0.000000000  0.375000000  0.358651308
     0.250000000  0.250000000  0.358651308
     0.250000000  0.375000000  0.608651308
     0.000000000  0.250000000  0.608651308
     0.000000000  0.375000000  0.858651308
     0.250000000  0.250000000  0.858651308
     0.250000000  0.625000000  0.108651308
     0.000000000  0.500000000  0.108651308
     0.000000000  0.625000000  0.358651308
     0.250000000  0.500000000  0.358651308
     0.250000000  0.625000000  0.608651308
     0.000000000  0.500000000  0.608651308
     0.000000000  0.625000000  0.858651308
     0.250000000  0.500000000  0.858651308
     0.250000000  0.875000000  0.108651308
     0.000000000  0.750000000  0.108651308
     0.000000000  0.875000000  0.358651308
     0.250000000  0.750000000  0.358651308
     0.250000000  0.875000000  0.608651308
     0.000000000  0.750000000  0.608651308
     0.000000000  0.875000000  0.858651308
     0.250000000  0.750000000  0.858651308
     0.750000000  0.125000000  0.108651308
     0.500000000  0.000000000  0.108651308
     0.500000000  0.125000000  0.358651308
     0.750000000  0.000000000  0.358651308
     0.750000000  0.125000000  0.608651308
     0.500000000  0.000000000  0.608651308
     0.500000000  0.125000000  0.858651308
     0.750000000  0.000000000  0.858651308
     0.750000000  0.375000000  0.108651308
     0.500000000  0.250000000  0.108651308
     0.500000000  0.375000000  0.358651308
     0.750000000  0.250000000  0.358651308
     0.750000000  0.375000000  0.608651308
     0.500000000  0.250000000  0.608651308
     0.500000000  0.375000000  0.858651308
     0.750000000  0.250000000  0.858651308
     0.750000000  0.625000000  0.108651308
     0.500000000  0.500000000  0.108651308
     0.500000000  0.625000000  0.358651308
     0.750000000  0.500000000  0.358651308
     0.750000000  0.625000000  0.608651308
     0.500000000  0.500000000  0.608651308
     0.500000000  0.625000000  0.858651308
     0.750000000  0.500000000  0.858651308
[...]
   -.119E+02 -.197E-04 0.115E+02   0.119E+02 0.711E-13 -.114E+02   -.653E-02 0.270E-04 0.147E-01   -.126E-02 -.990E-05 0.102E-02
   -.755E+01 0.521E+01 -.790E+01   0.761E+01 -.519E+01 0.789E+01   -.168E-01 0.174E-01 -.254E-02   0.468E-03 -.135E-02 0.802E-03
   0.668E-04 0.398E+01 -.565E+01   0.104E-12 -.397E+01 0.565E+01   -.119E-03 -.277E-02 -.267E-02   0.189E-05 -.685E-03 0.521E-03
   -.451E-04 0.488E+01 -.352E+01   -.115E-12 -.488E+01 0.350E+01   -.501E-04 0.247E-01 0.330E-04   0.619E-04 -.388E-03 -.165E-03
   -.300E+02 0.251E+02 -.126E+02   0.299E+02 -.250E+02 0.126E+02   0.475E-01 -.431E-01 0.107E-01   0.432E-02 -.507E-02 -.222E-03
   -.142E+02 0.117E+02 0.951E+01   0.142E+02 -.116E+02 -.951E+01   0.189E-01 0.108E-01 -.791E-02   -.896E-04 -.281E-03 -.820E-03
   0.153E-03 0.668E+01 0.620E+01   -.151E-12 -.666E+01 -.620E+01   -.814E-04 -.675E-02 0.635E-03   -.114E-03 -.501E-04 -.450E-03
   0.472E-04 0.242E+01 0.323E+01   0.306E-12 -.241E+01 -.320E+01   -.362E-04 0.224E-01 -.131E-01   -.926E-04 -.225E-03 0.109E-03
   -.853E+01 0.634E+01 0.763E+01   0.854E+01 -.634E+01 -.755E+01   -.561E-02 0.255E-02 -.247E-01   -.890E-03 0.252E-03 0.481E-03
   0.755E+01 -.521E+01 -.790E+01   -.761E+01 0.519E+01 0.789E+01   0.167E-01 -.174E-01 -.253E-02   -.538E-03 0.124E-02 0.852E-03
   -.797E-04 0.843E-05 -.959E+01   -.181E-12 0.199E-12 0.959E+01   -.113E-03 -.232E-04 0.342E-01   0.166E-03 0.695E-04 0.143E-02
   0.179E-03 -.306E+02 -.132E+02   0.298E-12 0.304E+02 0.131E+02   -.297E-04 0.431E-01 0.139E-01   -.262E-03 0.710E-02 -.116E-02
   0.120E+02 -.103E-05 -.546E+01   -.120E+02 0.155E-12 0.540E+01   0.401E-03 0.241E-04 0.590E-01   0.108E-03 -.271E-04 0.147E-03
   0.142E+02 -.117E+02 0.951E+01   -.142E+02 0.116E+02 -.951E+01   -.191E-01 -.108E-01 -.791E-02   0.466E-04 0.412E-03 -.877E-03
   0.672E-04 -.775E-04 0.115E+02   -.309E-12 -.162E-12 -.115E+02   -.939E-04 -.210E-04 0.483E-01   -.976E-05 0.946E-04 -.932E-03
   -.311E-04 -.651E+01 0.823E+01   0.263E-12 0.654E+01 -.813E+01   -.697E-04 -.366E-01 -.337E-01   0.255E-04 -.989E-03 0.348E-03
   0.580E+01 0.646E-04 0.462E+01   -.580E+01 0.114E-12 -.457E+01   0.269E-02 0.684E-05 0.256E-01   0.555E-03 -.877E-04 0.112E-03
   0.139E+02 -.624E+01 -.158E+02   -.140E+02 0.623E+01 0.158E+02   0.183E-01 0.252E-01 0.389E-02   -.172E-02 0.116E-02 0.302E-02
   0.451E-04 -.142E+02 -.204E+02   -.159E-13 0.142E+02 0.203E+02   -.946E-04 -.538E-04 0.735E-01   0.653E-06 0.220E-02 0.693E-02
   -.871E-04 -.204E+03 -.177E+03   0.288E-12 0.202E+03 0.175E+03   -.114E-04 0.150E+01 0.188E+01   -.340E-04 0.365E-01 0.238E-01
   0.300E+02 -.251E+02 -.126E+02   -.299E+02 0.250E+02 0.126E+02   -.476E-01 0.430E-01 0.107E-01   -.429E-02 0.526E-02 -.276E-03
   0.435E+02 -.196E+02 0.275E+02   -.432E+02 0.195E+02 -.274E+02   -.891E-01 0.347E-01 -.163E-01   -.310E-02 0.160E-02 -.407E-02
   0.912E-04 -.596E+02 0.428E+02   -.277E-12 0.592E+02 -.427E+02   -.122E-03 0.954E-01 -.737E-01   0.165E-04 0.507E-02 -.675E-02
   0.267E-04 -.812E+01 0.192E+02   0.492E-12 0.812E+01 -.190E+02   -.531E-04 0.835E-01 -.860E-01   -.522E-04 -.748E-03 0.526E-03
   0.853E+01 -.634E+01 0.763E+01   -.854E+01 0.634E+01 -.755E+01   0.544E-02 -.256E-02 -.247E-01   0.930E-03 -.236E-03 0.525E-03
   0.139E+02 0.624E+01 -.158E+02   -.140E+02 -.623E+01 0.158E+02   0.183E-01 -.252E-01 0.392E-02   -.169E-02 -.122E-02 0.284E-02
   -.944E-04 0.139E-03 -.388E+02   0.585E-13 0.135E-12 0.385E+02   -.816E-04 -.177E-04 0.194E+00   0.235E-03 -.125E-03 0.829E-02
   0.336E-03 0.204E+03 -.177E+03   -.162E-13 -.202E+03 0.175E+03   0.461E-04 -.150E+01 0.188E+01   -.457E-03 -.373E-01 0.242E-01
   0.722E+02 0.116E-03 -.293E+02   -.720E+02 0.480E-13 0.292E+02   -.146E+00 -.251E-05 0.125E+00   -.121E-01 -.124E-03 0.174E-02
   0.435E+02 0.196E+02 0.275E+02   -.432E+02 -.195E+02 -.274E+02   -.892E-01 -.347E-01 -.163E-01   -.290E-02 -.163E-02 -.395E-02
   -.162E-03 0.146E-03 0.264E+03   0.231E-12 0.675E-13 -.260E+03   0.235E-04 -.426E-04 -.287E+01   0.293E-04 -.652E-04 -.294E-01
   -.222E-04 0.812E+01 0.192E+02   0.228E-12 -.812E+01 -.190E+02   -.700E-04 -.835E-01 -.859E-01   0.715E-04 0.916E-03 0.378E-03
   0.119E+02 -.349E-05 0.115E+02   -.119E+02 0.711E-14 -.114E+02   0.631E-02 -.157E-04 0.147E-01   0.137E-02 0.165E-04 0.895E-03
   0.755E+01 0.521E+01 -.790E+01   -.761E+01 -.519E+01 0.789E+01   0.167E-01 0.174E-01 -.255E-02   -.609E-03 -.112E-02 0.847E-03
   -.282E-04 0.142E+02 -.204E+02   -.181E-12 -.142E+02 0.203E+02   -.879E-04 0.335E-04 0.735E-01   0.252E-04 -.201E-02 0.672E-02
   -.794E-04 0.306E+02 -.132E+02   -.131E-12 -.304E+02 0.131E+02   -.187E-04 -.432E-01 0.139E-01   -.155E-04 -.685E-02 -.119E-02
   0.300E+02 0.251E+02 -.126E+02   -.299E+02 -.250E+02 0.126E+02   -.477E-01 -.430E-01 0.106E-01   -.431E-02 -.516E-02 -.283E-03
[...]
   0.380E+01 0.279E+01 0.601E+02   -.382E+01 -.279E+01 -.647E+02   0.267E-01 -.124E-01 0.449E+01   0.587E-04 -.446E-03 0.622E-03
   0.823E+01 0.662E+01 -.705E+02   -.822E+01 -.658E+01 0.750E+02   -.152E-01 -.563E-01 -.448E+01   -.120E-02 -.162E-02 0.503E-03
   -.566E+02 0.395E+01 -.242E+01   0.611E+02 -.394E+01 0.239E+01   -.455E+01 -.297E-01 0.361E-01   -.185E-04 -.328E-03 0.473E-04
   0.699E+02 0.109E+02 -.507E+01   -.745E+02 -.109E+02 0.503E+01   0.451E+01 -.330E-01 0.508E-01   0.191E-03 -.189E-02 -.107E-03
   0.259E-03 0.219E+02 0.421E+02   0.116E-12 -.218E+02 -.465E+02   -.528E-03 -.132E+00 0.427E+01   0.319E-03 -.691E-02 0.243E-02
   0.658E-04 0.546E+02 -.625E+02   0.187E-13 -.543E+02 0.668E+02   0.881E-04 -.512E+00 -.417E+01   -.124E-03 -.857E-02 -.520E-03
   -.572E+02 0.109E+02 0.768E+01   0.618E+02 -.109E+02 -.768E+01   -.458E+01 -.108E+00 -.179E-01   0.249E-03 -.418E-03 -.863E-03
   0.657E+02 0.275E+01 0.280E+01   -.702E+02 -.274E+01 -.280E+01   0.451E+01 -.168E-01 -.187E-02   0.128E-03 -.189E-03 -.103E-03
   0.164E+02 0.138E+02 0.661E+02   -.164E+02 -.138E+02 -.706E+02   -.891E-01 -.697E-01 0.457E+01   -.130E-02 -.109E-02 -.830E-03
   0.828E+01 0.660E+01 -.540E+02   -.822E+01 -.658E+01 0.586E+02   -.822E-01 -.536E-01 -.460E+01   -.481E-04 0.237E-03 -.417E-03
   -.597E+02 0.157E+01 0.205E+01   0.642E+02 -.156E+01 -.203E+01   -.452E+01 -.760E-02 -.347E-01   0.155E-03 -.597E-04 0.472E-04
   0.651E+02 0.274E+01 0.348E+01   -.696E+02 -.274E+01 -.344E+01   0.455E+01 -.438E-02 -.546E-01   0.622E-03 0.943E-04 0.585E-04
   -.141E-04 0.958E+01 0.756E+02   -.142E-13 -.960E+01 -.800E+02   -.442E-04 0.201E-01 0.424E+01   0.588E-04 0.732E-03 -.106E-02
   -.155E-04 0.386E+01 -.622E+02   0.199E-12 -.391E+01 0.668E+02   -.564E-04 0.897E-01 -.460E+01   0.763E-04 0.561E-03 0.161E-02
   -.416E-03 -.154E-03 -.392E+01   -.192E-11 -.142E-12 0.117E-11   0.241E-03 0.409E-03 0.365E+01   -.236E-03 -.138E-03 0.489E-01

 POSITION                                       TOTAL-FORCE (eV/Angst)
      3.25402      1.48055      1.41421         0.045535     -0.033178     -0.009840
      0.00000      0.00000      1.41421        -0.000048     -0.000007      0.043328
      0.00000      1.48055      4.66823        -0.000036     -0.022824     -0.020778
      3.25402      0.00000      4.66823         0.002015      0.000040     -0.002003
      3.25402      1.48055      7.92225        -0.034680     -0.053470     -0.006452
      0.00000      0.00000      7.92225        -0.000036      0.000002      0.038789
      0.00000      1.48055     11.17627        -0.000079     -0.026144      0.011269
      3.25402      0.00000     11.17627         0.005595     -0.000011      0.080286
      3.25402      4.44164      1.41421         0.042216      0.012605     -0.025075
      0.00000      2.96109      1.41421        -0.000052     -0.009317     -0.000614
      0.00000      4.44164      4.66823        -0.000013      0.019870     -0.021263
      3.25402      2.96109      4.66823        -0.077062     -0.061798     -0.036250
      3.25402      4.44164      7.92225        -0.209649     -0.024427      0.027522
      0.00000      2.96109      7.92225        -0.000028     -0.021125     -0.006227
      0.00000      4.44164     11.17627        -0.000068      0.020086      0.012140
      3.25402      2.96109     11.17627         0.011640      0.004575      0.052652
      3.25402      7.40273      1.41421         0.042180     -0.012648     -0.025034
      0.00000      5.92219      1.41421        -0.000025      0.000023      0.044836
      0.00000      7.40273      4.66823        -0.000068     -0.019896     -0.021239
      3.25402      5.92219      4.66823         0.018577     -0.000037      0.025845
      3.25402      7.40273      7.92225        -0.209677      0.024398      0.027579
      0.00000      5.92219      7.92225        -0.000026      0.000028      0.040078
      0.00000      7.40273     11.17627        -0.000111     -0.020071      0.012189
      3.25402      5.92219     11.17627         0.020977     -0.000003      0.099216
      3.25402     10.36382      1.41421         0.045471      0.033227     -0.009863
      0.00000      8.88328      1.41421        -0.000048      0.009317     -0.000623
      0.00000     10.36382      4.66823        -0.000031      0.022823     -0.020814
      3.25402      8.88328      4.66823        -0.077012      0.061813     -0.036260
      3.25402     10.36382      7.92225        -0.034739      0.053513     -0.006394
      0.00000      8.88328      7.92225        -0.000039      0.021130     -0.006180
      0.00000     10.36382     11.17627        -0.000079      0.026156      0.011282
      3.25402      8.88328     11.17627         0.011634     -0.004559      0.052647
      9.76206      1.48055      1.41421        -0.045638     -0.033268     -0.009861
      6.50804      0.00000      1.41421        -0.000025      0.000054      0.040425
      6.50804      1.48055      4.66823        -0.000110     -0.133295     -0.136699
      9.76206      0.00000      4.66823        -0.002108     -0.000005     -0.001996
      9.76206      1.48055      7.92225         0.034601     -0.053483     -0.006406
      6.50804      0.00000      7.92225        -0.000034     -0.000004      0.050173
      6.50804      1.48055     11.17627        -0.000073     -0.001921      0.070937
      9.76206      0.00000     11.17627        -0.005666     -0.000017      0.080315
      9.76206      4.44164      1.41421        -0.042328      0.012642     -0.025060
      6.50804      2.96109      1.41421        -0.000047      0.031177     -0.004250
      6.50804      4.44164      4.66823        -0.000130     -0.604763     -0.420331
      9.76206      2.96109      4.66823         0.077059     -0.061893     -0.036259
      9.76206      4.44164      7.92225         0.209432     -0.024379      0.027547
      6.50804      2.96109      7.92225        -0.000012     -0.302833      0.041246
      6.50804      4.44164     11.17627        -0.000077      0.087609      0.113345
      9.76206      2.96109     11.17627        -0.011710      0.004595      0.052672
      9.76206      7.40273      1.41421        -0.042298     -0.012643     -0.025075
      6.50804      5.92219      1.41421         0.000061     -0.000004     -0.119379
      6.50804      7.40273      4.66823        -0.000072      0.604639     -0.420353
      9.76206      5.92219      4.66823        -0.018651     -0.000011      0.025808
      9.76206      7.40273      7.92225         0.209445      0.024385      0.027585
      6.50804      5.92219      7.92225        -0.000107      0.000038      0.957572
      6.50804      7.40273     11.17627        -0.000019     -0.087605      0.113206
      9.76206      5.92219     11.17627        -0.021051     -0.000003      0.099227
      9.76206     10.36382      1.41421        -0.045678      0.033237     -0.009853
      6.50804      8.88328      1.41421        -0.000089     -0.031140     -0.004329
      6.50804     10.36382      4.66823        -0.000111      0.133275     -0.136694
      9.76206      8.88328      4.66823         0.077013      0.061891     -0.036275
[...]
     11.74398     10.36382      1.41421         0.016974     -0.006700     -0.001572
      9.76206      8.88328      0.14212         0.005953     -0.006442     -0.015591
      9.76206      8.88328      2.68630        -0.002463     -0.017830      0.024019
     11.03415     10.36382      4.66823        -0.013283     -0.014166      0.009614
      8.48997     10.36382      4.66823        -0.004391     -0.013522      0.009154
      6.50804      8.88328      3.39614         0.000052      0.016694     -0.120885
      6.50804      8.88328      5.94032         0.000032     -0.225659      0.104809
      7.78013     10.36382      7.92225        -0.040548     -0.054969     -0.009180
     11.74398     10.36382      7.92225        -0.003478     -0.009482     -0.001279
      9.76206      8.88328      6.65016        -0.022684     -0.030065      0.024880
      9.76206      8.88328      9.19434        -0.023167     -0.033556     -0.051809
     11.03415     10.36382     11.17627        -0.004065     -0.006055     -0.009382
      8.48997     10.36382     11.17627         0.014860     -0.004927     -0.013446
      6.50804      8.88328      9.90418         0.000003      0.006446     -0.179065
      6.50804      8.88328     12.44836         0.000006      0.035777     -0.046912
    total drift:                               -0.000411      0.000117     -0.216042

  FREE ENERGIE OF THE ION-ELECTRON SYSTEM (eV)
  free  energy   TOTEN  =     -2221.48366762 eV

  energy  without entropy=    -2221.48366371  energy(sigma->0) =    -2221.48366567

 total charge

# of ion       s       p       d       tot
    1        2.217   6.298   1.640  10.155
    2        2.217   6.299   1.640  10.155
    3        2.217   6.299   1.640  10.155
    4        2.217   6.298   1.640  10.156
    5        2.217   6.299   1.640  10.155
    6        2.217   6.299   1.640  10.155
    7        2.217   6.299   1.640  10.155
    8        2.217   6.299   1.640  10.155
    9        2.217   6.299   1.640  10.155
   10        2.217   6.299   1.640  10.155
   11        2.217   6.299   1.640  10.155
   12        2.217   6.298   1.642  10.157
   13        2.217   6.299   1.641  10.156
   14        2.217   6.299   1.640  10.155
   15        2.217   6.299   1.640  10.155
   16        2.217   6.299   1.640  10.155
   17        2.217   6.299   1.640  10.155
   18        2.217   6.299   1.640  10.155
   19        2.217   6.299   1.640  10.155
   20        2.216   6.298   1.643  10.158
   21        2.217   6.299   1.641  10.156
   22        2.217   6.299   1.640  10.155
   23        2.217   6.299   1.640  10.155
   24        2.217   6.299   1.640  10.155
   25        2.217   6.298   1.640  10.155
   26        2.217   6.299   1.640  10.155
   27        2.217   6.299   1.640  10.155
   28        2.217   6.298   1.642  10.157
   29        2.217   6.299   1.640  10.155
   30        2.217   6.299   1.640  10.155
   31        2.217   6.299   1.640  10.155
   32        2.217   6.299   1.640  10.155
   33        2.217   6.298   1.640  10.155
   34        2.217   6.299   1.640  10.155
   35        2.216   6.298   1.643  10.157
   36        2.217   6.298   1.640  10.156
   37        2.217   6.299   1.640  10.155
   38        2.217   6.299   1.640  10.155
   39        2.217   6.299   1.640  10.155
   40        2.217   6.299   1.640  10.155
   41        2.217   6.299   1.640  10.155
   42        2.216   6.298   1.647  10.161
   43        2.207   6.259   1.655  10.121
   44        2.217   6.298   1.642  10.157
   45        2.217   6.299   1.641  10.156
   46        2.217   6.299   1.639  10.154
   47        2.216   6.297   1.648  10.161
   48        2.217   6.299   1.640  10.155
   49        2.217   6.299   1.640  10.155
   50        2.216   6.298   1.643  10.157
   51        2.207   6.259   1.655  10.121
   52        2.216   6.298   1.643  10.158
   53        2.217   6.299   1.641  10.156
   54        2.208   6.259   1.663  10.131
   55        2.216   6.297   1.648  10.161
   56        2.217   6.299   1.640  10.155
   57        2.217   6.298   1.640  10.155
   58        2.216   6.298   1.647  10.161
   59        2.216   6.298   1.643  10.157
   60        2.217   6.298   1.642  10.157
[...]
  177        1.578   3.530   0.000   5.108
  178        1.578   3.530   0.000   5.108
  179        1.578   3.530   0.000   5.108
  180        1.578   3.530   0.000   5.108
  181        1.578   3.530   0.000   5.108
  182        1.581   3.520   0.000   5.101
  183        1.578   3.531   0.000   5.109
  184        1.578   3.529   0.000   5.108
  185        1.578   3.530   0.000   5.108
  186        1.578   3.530   0.000   5.108
  187        1.578   3.530   0.000   5.108
  188        1.578   3.530   0.000   5.108
  189        1.578   3.530   0.000   5.108
  190        1.578   3.530   0.000   5.108
  191        1.578   3.529   0.000   5.107
tot        342.278 851.203 105.0611298.543