 vasp.6.2.0 18Jan21 (build Mar 03 2021 13:27:41) complex

 executed on             LinuxIFC date 2021.07.01  09:40:51

 INCAR:
   SYSTEM = TiO2-rutile
   ISMEAR = 0
   SIGMA = 0.05
   EDIFF = 1E-5
   ALGO = Fast
   ISTART = 1
   ISYM = 0
   METAGGA = R2SCAN
   IBRION = -1
   NSW = 0
   EDIFFG = -0.01
   ENCUT = 500
   PREC = Accurate
   LASPH = .TRUE.
   LREAL = Auto
   ISPIN = 1
   NELM = 500
   NELMIN = 4
   NCORE = 20
   LWAVE = .FALSE.
   LCHARG = .FALSE.
   LORBIT = 11

 POTCAR:    PAW_PBE Ti_sv 26Sep2005
 POTCAR:    PAW_PBE O 08Apr2002
|           W    W    AA    RRRRR   N    N  II  N    N   GGGG   !!!           |
|           W    W   A  A   R    R  NN   N  II  NN   N  G    G  !!!           |
|           W    W  A    A  R    R  N N  N  II  N N  N  G       !!!           |
|           W WW W  AAAAAA  RRRRR   N  N N  II  N  N N  G  GGG   !            |
|           WW  WW  A    A  R   R   N   NN  II  N   NN  G    G                |
|           W    W  A    A  R    R  N    N  II  N    N   GGGG   !!!           |
|     For optimal performance we recommend to set                             |
|       NCORE = 2 up to number-of-cores-per-socket                            |
|     This setting can greatly improve the performance of VASP for DFT.       |
|     The default, NCORE=1 might be grossly inefficient on modern             |
|     multi-core architectures or massively parallel machines. Do your        |
|     Unfortunately you need to use the default for GW and RPA                |
|     calculations (for HF NCORE is supported but not extensively tested      |
|     yet).                                                                   |

   TITEL  = PAW_PBE Ti_sv 26Sep2005
   POMASS =   47.880; ZVAL   =   12.000    mass and valenz
   ENMAX  =  274.610; ENMIN  =  205.957 eV

   TITEL  = PAW_PBE O 08Apr2002
   POMASS =   16.000; ZVAL   =    6.000    mass and valenz
   ENMAX  =  400.000; ENMIN  =  300.000 eV

 Optimization of the real space projectors (new method)

 maximal supplied QI-value         = 16.25
 optimisation between [QCUT,QGAM] = [ 11.38, 22.75] = [ 36.24,144.96] Ry
 Optimized for a Real-space Cutoff    1.27 Angstroem

   l    n(q)    QCUT    max X(q) W(low)/X(q) W(high)/X(q)  e(spline)
   0      9    11.376    12.277    0.53E-04    0.25E-04    0.25E-07
   0      9    11.376    11.419    0.89E-04    0.67E-05    0.35E-07
   1      8    11.376     4.010    0.13E-03    0.11E-03    0.29E-07
   1      8    11.376     6.182    0.94E-04    0.19E-03    0.11E-06
   2      8    11.376    47.177    0.13E-03    0.88E-03    0.24E-06
   2      8    11.376    42.437    0.13E-03    0.86E-03    0.23E-06
 Optimization of the real space projectors (new method)

 maximal supplied QI-value         = 24.76
 optimisation between [QCUT,QGAM] = [ 11.39, 22.77] = [ 36.31,145.25] Ry
 Optimized for a Real-space Cutoff    1.10 Angstroem

   l    n(q)    QCUT    max X(q) W(low)/X(q) W(high)/X(q)  e(spline)
   0      7    11.387    20.381    0.22E-03    0.48E-03    0.18E-06
   0      7    11.387    15.268    0.22E-03    0.52E-03    0.19E-06
   1      7    11.387     5.964    0.22E-03    0.73E-03    0.24E-06
   1      7    11.387     5.382    0.19E-03    0.60E-03    0.21E-06
  PAW_PBE Ti_sv 26Sep2005               :
  PAW_PBE O 08Apr2002                   :

 POSCAR: Ti  O
  positions in direct lattice

 METAGGA = R2SCA    LMAXTAU =  6    LMIXTAU =  F

 ion  position               nearest neighbor table
   1  0.000  0.125  0.287-  83 1.95 103 1.95  84 1.95 104 1.95  81 1.98  82 1.98
   2  0.750  0.000  0.287-  81 1.95 141 1.95 162 1.95 221 1.95 167 1.98
   3  0.250  0.125  0.394-  87 1.95  88 1.95 107 1.95 108 1.95  85 1.98 166 1.98
   4  0.000  0.000  0.394-  85 1.95  86 1.95 145 1.95 146 1.95  84 1.98  91 1.98
   5  0.000  0.125  0.500-  91 1.95  92 1.95 111 1.95 112 1.95  89 1.98  90 1.98
   6  0.750  0.000  0.500-  89 1.95 149 1.95 170 1.95 229 1.95 168 1.98 175 2.00
   7  0.250  0.125  0.604-  95 1.90 115 1.90 174 1.95  93 1.95  96 2.01 116 2.01
   8  0.000  0.000  0.610-  99 1.87  94 1.97  93 1.97 153 1.97 154 1.97  92 2.10
   9  0.000  0.125  0.720- 100 1.83 120 1.83  97 2.03  98 2.03 119 2.09  99 2.09
  10  0.750  1.000  0.708- 176 1.81 237 1.94 157 1.94  97 1.94 178 1.94
  11  0.000  0.375  0.287- 103 1.95 123 1.95 104 1.95 124 1.95 101 1.98 102 1.98
  12  0.750  0.250  0.287-  81 1.95 101 1.95 162 1.95 182 1.95 187 1.98
  13  0.250  0.375  0.394- 107 1.95 108 1.95 127 1.95 128 1.95 105 1.98 186 1.98
  14  0.000  0.250  0.394-  85 1.95  86 1.95 105 1.95 106 1.95 104 1.98 111 1.98
  15  0.000  0.375  0.500- 111 1.95 112 1.95 131 1.95 132 1.95 109 1.98 110 1.98
  16  0.750  0.250  0.500-  89 1.95 109 1.95 170 1.95 190 1.95 188 1.98 195 2.00
  17  0.250  0.375  0.604- 135 1.90 115 1.90 113 1.95 194 1.95 136 2.01 116 2.01
  18  0.000  0.250  0.610- 119 1.86  93 1.97  94 1.97 114 1.97 113 1.97 112 2.10
  19  1.000  0.375  0.720- 140 1.83 120 1.83 118 2.03 117 2.03 119 2.09 139 2.09
  20  0.750  0.250  0.708- 196 1.81  97 1.94 178 1.94 117 1.94 198 1.94
  21  0.000  0.625  0.287- 123 1.95 143 1.95 124 1.95 144 1.95 121 1.98 122 1.98
  22  0.750  0.500  0.287- 101 1.95 121 1.95 182 1.95 202 1.95 207 1.98
  23  0.250  0.625  0.394- 127 1.95 128 1.95 147 1.95 148 1.95 125 1.98 206 1.98
  24  0.000  0.500  0.394- 105 1.95 106 1.95 125 1.95 126 1.95 124 1.98 131 1.98
  25  0.000  0.625  0.500- 131 1.95 132 1.95 151 1.95 152 1.95 129 1.98 130 1.98
  26  0.750  0.500  0.500- 109 1.95 129 1.95 190 1.95 210 1.95 208 1.98 215 2.00
  27  0.250  0.625  0.604- 135 1.90 155 1.90 133 1.95 214 1.95 136 2.01 156 2.01
  28  1.000  0.500  0.610- 139 1.87 114 1.97 134 1.97 113 1.97 133 1.97 132 2.10
  29  0.000  0.625  0.720- 140 1.83 160 1.83 138 2.03 137 2.03 159 2.09 139 2.09
  30  0.750  0.500  0.708- 216 1.81 198 1.94 117 1.94 218 1.94 137 1.94
  31  0.000  0.875  0.287-  83 1.95 143 1.95  84 1.95 144 1.95 141 1.98 142 1.98
  32  0.750  0.750  0.287- 121 1.95 141 1.95 202 1.95 221 1.95 226 1.98
  33  0.250  0.875  0.394-  87 1.95  88 1.95 147 1.95 148 1.95 145 1.98 225 1.98
  34  0.000  0.750  0.394- 125 1.95 126 1.95 145 1.95 146 1.95 144 1.98 151 1.98
  35  0.000  0.875  0.500-  91 1.95  92 1.95 151 1.95 152 1.95 149 1.98 150 1.98
  36  0.750  0.750  0.500- 129 1.95 149 1.95 210 1.95 229 1.95 227 1.98 234 2.00
  37  0.250  0.875  0.604-  95 1.90 155 1.90 153 1.95 233 1.95  96 2.01 156 2.01
  38  1.000  0.750  0.610- 159 1.86 154 1.97 134 1.97 153 1.97 133 1.97 152 2.10
  39  1.000  0.875  0.720- 100 1.83 160 1.83 157 2.03 158 2.03 159 2.09  99 2.09
  40  0.750  0.750  0.708- 235 1.81 218 1.94 137 1.94 237 1.94 157 1.94
  41  0.500  0.125  0.287- 163 1.95 183 1.95 164 1.95 184 1.95 161 1.98 162 1.98
  42  0.250  0.000  0.287-  82 1.95 142 1.95 161 1.95 220 1.95  87 1.98
  43  0.750  0.125  0.394- 167 1.95 168 1.95 187 1.95 188 1.95  86 1.98 165 1.98
  44  0.500  0.000  0.394- 165 1.95 166 1.95 224 1.95 225 1.95 164 1.98 171 1.98
  45  0.500  0.125  0.500- 171 1.95 172 1.95 191 1.95 192 1.95 169 1.98 170 1.98
  46  0.250  0.000  0.500-  90 1.95 150 1.95 169 1.95 228 1.95  88 1.98  95 2.00
  47  0.750  0.125  0.604- 175 1.90 195 1.90 173 1.95  94 1.95 176 2.01 196 2.01
  48  0.500  1.000  0.610- 179 1.87 233 1.97 232 1.97 174 1.97 173 1.97 172 2.10
  49  0.500  0.125  0.720- 180 1.83 200 1.83 177 2.03 178 2.03 199 2.09 179 2.09
  50  0.250  0.000  0.708-  96 1.81  98 1.94 177 1.94 158 1.94 236 1.94
  51  0.500  0.375  0.287- 183 1.95 203 1.95 184 1.95 204 1.95 181 1.98 182 1.98
  52  0.250  0.250  0.287-  82 1.95 102 1.95 161 1.95 181 1.95 107 1.98
  53  0.750  0.375  0.394- 187 1.95 188 1.95 207 1.95 208 1.95 106 1.98 185 1.98
  54  0.500  0.250  0.394- 165 1.95 166 1.95 185 1.95 186 1.95 184 1.98 191 1.98
  55  0.500  0.375  0.500- 191 1.95 192 1.95 211 1.95 212 1.95 189 1.98 190 1.98
  56  0.250  0.250  0.500-  90 1.95 110 1.95 169 1.95 189 1.95 108 1.98 115 2.00
  57  0.750  0.375  0.604- 215 1.90 195 1.90 193 1.95 114 1.95 216 2.01 196 2.01
  58  0.500  0.250  0.610- 199 1.86 173 1.97 193 1.97 194 1.97 174 1.97 192 2.10
  59  0.500  0.375  0.720- 200 1.83 198 2.03 197 2.03 199 2.09 219 2.09
  60  0.250  0.250  0.708- 116 1.81 118 1.94 197 1.94  98 1.94 177 1.94
[...]
 225  0.402  0.875  0.394-  44 1.95  74 1.95  33 1.98
 226  0.750  0.750  0.352-  63 1.95  73 1.95  32 1.98
 227  0.750  0.750  0.435-  63 1.95  73 1.95  36 1.98
 228  0.348  0.875  0.500-  46 1.95  76 1.95  75 1.98
 229  0.652  0.875  0.500-   6 1.95  36 1.95  75 1.98
 230  0.500  0.750  0.458-  65 1.95  75 1.95  74 1.98
 231  0.500  0.750  0.542-  65 1.95  75 1.95  78 2.10
 232  0.600  0.875  0.607-  77 1.95  78 1.97  48 1.97
 233  0.400  0.875  0.607-  37 1.95  78 1.97  48 1.97
 234  0.750  0.750  0.565-  67 1.90  77 1.90  36 2.00
 235  0.750  0.750  0.649-  40 1.81  67 2.01  77 2.01
 236  0.344  0.875  0.718-  80 1.94  50 1.94  79 2.03
 237  0.656  0.875  0.718-  40 1.94  10 1.94  79 2.03
 238  0.500  0.750  0.671-  78 1.86  79 2.09  69 2.09
 239  0.500  0.750  0.755-  79 1.83  69 1.83

IMPORTANT INFORMATION: All symmetrisations will be switched off!
NOSYMM: (Re-)initialisation of all symmetry stuff for point group C_1.

                                     Primitive cell

  volume of cell :    4707.4914

  direct lattice vectors                    reciprocal lattice vectors
    13.012021538  0.000000000  0.000000000     0.076852009  0.000000000  0.000000000
     0.000000000 11.840107461  0.000000000     0.000000000  0.084458693  0.000000000
     0.000000000  0.000000000 30.555480454     0.000000000  0.000000000  0.032727353

  length of vectors
    13.012021538 11.840107461 30.555480454     0.076852009  0.084458693  0.032727353

  position of ions in fractional coordinates (direct lattice)
     0.000000000  0.125000000  0.287075488
     0.750000000  0.000000000  0.287075488
     0.250000000  0.125000000  0.393537744
     0.000000000  0.000000000  0.393537744
     0.000000000  0.125000000  0.500000000
     0.750000000  0.000000000  0.500000000
     0.250005433  0.124992783  0.604281612
     0.000004369  0.000006744  0.610224925
     0.000000224  0.125000712  0.719763662
     0.750000877  0.999991167  0.708048874
     0.000000000  0.375000000  0.287075488
     0.750000000  0.250000000  0.287075488
     0.250000000  0.375000000  0.393537744
     0.000000000  0.250000000  0.393537744
     0.000000000  0.375000000  0.500000000
     0.750000000  0.250000000  0.500000000
     0.249988909  0.375007687  0.604282410
     0.000003124  0.249997191  0.610403916
     0.999999471  0.375007938  0.719756145
     0.750000631  0.249996690  0.708170931
     0.000000000  0.625000000  0.287075488
     0.750000000  0.500000000  0.287075488
     0.250000000  0.625000000  0.393537744
     0.000000000  0.500000000  0.393537744
     0.000000000  0.625000000  0.500000000
     0.750000000  0.500000000  0.500000000
     0.249981831  0.624990119  0.604281662
     0.999950935  0.499997100  0.610218599
     0.000003722  0.624990415  0.719761012
     0.749999959  0.499992727  0.708048353
     0.000000000  0.875000000  0.287075488
     0.750000000  0.750000000  0.287075488
     0.250000000  0.875000000  0.393537744
     0.000000000  0.750000000  0.393537744
[...]
   0.126E-02 -.258E-03 0.250E+04   -.125E-02 0.282E-03 -.250E+04   -.134E-03 -.495E-05 0.433E+00   0.416E-04 -.933E-05 0.254E-02
   -.502E-02 0.493E+00 -.439E+02   0.497E-02 -.463E+00 0.447E+02   -.733E-04 0.166E-01 -.225E+00   0.191E-04 -.672E-04 0.304E-02
   0.246E+01 -.176E-02 -.288E+02   -.245E+01 0.174E-02 0.273E+02   -.270E-02 0.167E-04 0.625E+00   -.396E-03 0.349E-05 0.367E-02
   -.120E+02 0.491E+01 -.251E+04   0.119E+02 -.484E+01 0.251E+04   0.310E-01 -.323E-01 0.971E+00   0.130E-02 -.452E-03 0.347E-02
   -.182E+00 -.143E-01 -.259E+04   0.183E+00 0.145E-01 0.259E+04   -.722E-02 0.492E-03 -.117E+01   0.106E-03 -.120E-04 0.296E-02
   0.147E-01 0.584E+01 -.498E+04   -.157E-01 -.584E+01 0.498E+04   -.191E-03 0.106E-01 -.173E+01   0.849E-04 -.325E-03 -.130E-03
   0.684E+02 -.728E-01 -.502E+04   -.679E+02 0.739E-01 0.502E+04   -.288E+00 0.184E-02 0.322E+01   -.267E-02 0.333E-04 -.766E-03
   0.306E-03 0.365E-01 0.497E+04   -.329E-03 -.372E-01 -.497E+04   0.213E-04 -.568E-02 0.121E+01   -.524E-05 -.742E-03 0.129E-02
   0.119E+00 0.576E-01 0.519E+04   -.118E+00 -.579E-01 -.518E+04   -.145E-03 0.640E-04 -.596E+01   -.215E-03 -.983E-04 0.745E-03
   -.390E+00 0.173E+00 0.251E+04   0.389E+00 -.175E+00 -.251E+04   0.184E-03 -.979E-02 -.159E+00   0.824E-04 -.141E-04 0.272E-02
   0.133E-02 0.198E+00 0.250E+04   -.130E-02 -.198E+00 -.250E+04   -.185E-03 0.193E-03 0.450E+00   0.264E-04 -.670E-04 0.262E-02
   0.583E-02 0.782E+00 -.428E+02   -.594E-02 -.805E+00 0.436E+02   -.514E-04 -.182E-01 -.227E+00   0.423E-04 -.819E-04 0.300E-02
   0.199E+01 0.134E+01 -.276E+02   -.198E+01 -.134E+01 0.261E+02   -.174E-02 -.934E-04 0.619E+00   -.317E-03 -.167E-03 0.352E-02
   -.635E+01 0.491E+01 -.250E+04   0.628E+01 -.489E+01 0.250E+04   0.188E-01 0.764E-02 0.949E+00   0.881E-03 -.364E-03 0.287E-02
   -.727E-02 0.347E+01 -.259E+04   0.847E-02 -.344E+01 0.259E+04   -.563E-04 -.861E-02 -.113E+01   0.946E-04 -.253E-03 0.277E-02
   0.158E-01 0.452E+01 -.498E+04   -.145E-01 -.450E+01 0.498E+04   0.311E-04 -.115E-01 -.173E+01   0.663E-04 -.305E-03 -.247E-04
   0.290E+02 0.243E+02 -.501E+04   -.286E+02 -.240E+02 0.500E+04   -.141E+00 -.119E+00 0.315E+01   -.209E-02 -.125E-02 -.353E-03
   -.392E-03 -.427E-01 0.497E+04   0.360E-03 0.448E-01 -.497E+04   0.137E-04 0.561E-02 0.121E+01   0.249E-04 0.150E-03 0.504E-03
   -.114E+00 0.104E-03 0.519E+04   0.113E+00 -.100E-03 -.518E+04   0.110E-03 -.503E-04 -.590E+01   0.347E-03 0.385E-04 0.727E-03
   0.390E+00 -.173E+00 0.251E+04   -.389E+00 0.174E+00 -.251E+04   -.402E-03 0.978E-02 -.159E+00   -.969E-04 0.501E-04 0.274E-02
   -.144E-02 0.500E-03 0.250E+04   0.158E-02 -.543E-03 -.250E+04   -.809E-04 0.409E-04 0.436E+00   -.383E-04 0.191E-04 0.254E-02
   -.804E-02 -.139E+01 -.459E+02   0.800E-02 0.143E+01 0.467E+02   -.265E-05 0.195E-01 -.216E+00   -.359E-04 0.183E-03 0.342E-02
   -.159E+01 0.484E-02 -.262E+02   0.158E+01 -.472E-02 0.247E+02   0.254E-02 0.262E-04 0.617E+00   0.265E-03 0.803E-05 0.341E-02
   0.627E+01 -.495E+01 -.251E+04   -.621E+01 0.492E+01 0.250E+04   -.158E-01 -.741E-02 0.948E+00   -.897E-03 0.338E-03 0.316E-02
   -.248E-01 -.553E-01 -.259E+04   0.240E-01 0.549E-01 0.259E+04   0.154E-02 0.167E-02 -.112E+01   -.123E-03 -.240E-04 0.340E-02
   -.455E-02 -.317E+02 -.499E+04   0.485E-02 0.313E+02 0.499E+04   -.511E-04 0.678E-01 -.167E+01   -.407E-04 0.239E-02 -.421E-03
   -.116E+02 0.818E-01 -.500E+04   0.114E+02 -.833E-01 0.499E+04   0.320E-01 -.188E-02 0.305E+01   0.117E-02 -.389E-05 -.211E-03
   -.407E-03 -.453E-01 0.497E+04   0.402E-03 0.447E-01 -.497E+04   0.336E-04 -.598E-02 0.121E+01   0.150E-04 -.145E-04 0.452E-03
   -.119E+00 -.576E-01 0.519E+04   0.118E+00 0.578E-01 -.518E+04   0.222E-04 0.270E-04 -.596E+01   0.157E-03 0.884E-04 0.636E-03
   0.448E+00 -.170E+00 0.251E+04   -.448E+00 0.169E+00 -.251E+04   -.103E-03 -.995E-02 -.159E+00   -.912E-04 0.380E-04 0.277E-02
   -.195E-02 -.286E+00 0.250E+04   0.210E-02 0.289E+00 -.250E+04   -.102E-03 -.650E-03 0.450E+00   -.309E-04 0.481E-04 0.258E-02
   -.275E-01 -.120E+01 -.488E+02   0.276E-01 0.116E+01 0.495E+02   -.936E-05 -.149E-01 -.207E+00   -.249E-04 0.253E-03 0.370E-02
   -.197E+01 -.133E+01 -.276E+02   0.197E+01 0.133E+01 0.261E+02   0.151E-02 0.173E-03 0.618E+00   0.315E-03 0.142E-03 0.355E-02
   0.121E+02 -.490E+01 -.251E+04   -.120E+02 0.484E+01 0.251E+04   -.203E-01 0.314E-01 0.971E+00   -.129E-02 0.456E-03 0.373E-02
   -.423E-01 -.138E+02 -.261E+04   0.461E-01 0.139E+02 0.261E+04   -.221E-02 -.171E-01 -.962E+00   -.109E-03 0.116E-02 0.475E-02
   -.473E-01 -.252E+03 -.516E+04   0.462E-01 0.248E+03 0.516E+04   0.545E-03 0.269E+01 0.189E+01   -.515E-04 0.121E-02 -.261E-02
   -.290E+02 -.243E+02 -.501E+04   0.286E+02 0.240E+02 0.500E+04   0.141E+00 0.119E+00 0.315E+01   0.200E-02 0.125E-02 -.445E-03
[...]
   0.118E+00 0.635E-01 0.182E+04   -.118E+00 -.638E-01 -.182E+04   0.262E-05 0.709E-03 0.147E+01   -.521E-04 -.581E-04 0.779E-03
   0.384E+00 0.236E+00 0.695E+03   -.382E+00 -.236E+00 -.691E+03   -.168E-02 0.671E-03 -.456E+01   -.603E-04 -.653E-04 0.135E-02
   -.677E+02 0.600E+00 -.153E+02   0.726E+02 -.604E+00 0.150E+02   -.540E+01 -.179E-02 0.470E+00   0.151E-03 -.619E-04 0.159E-02
   0.677E+02 0.600E+00 -.153E+02   -.726E+02 -.605E+00 0.150E+02   0.540E+01 -.174E-02 0.470E+00   -.152E-03 -.729E-04 0.158E-02
   -.276E-02 0.438E+00 0.539E+03   0.272E-02 -.440E+00 -.543E+03   0.431E-04 0.759E-02 0.454E+01   0.127E-04 -.591E-04 0.144E-02
   -.491E-02 0.193E+01 -.605E+03   0.470E-02 -.194E+01 0.612E+03   0.129E-03 0.102E-01 -.710E+01   0.176E-06 -.182E-03 0.165E-02
   -.327E+02 0.357E+01 -.127E+04   0.358E+02 -.357E+01 0.127E+04   -.316E+01 -.145E-01 0.115E+01   -.171E-03 -.241E-03 0.167E-02
   0.327E+02 0.362E+01 -.127E+04   -.358E+02 -.363E+01 0.127E+04   0.316E+01 -.882E-02 0.115E+01   0.110E-03 -.243E-03 0.168E-02
   0.255E+01 0.190E+01 -.708E+03   -.254E+01 -.189E+01 0.702E+03   -.272E-01 -.332E-01 0.667E+01   -.325E-03 -.187E-03 0.149E-02
   0.796E+01 0.644E+01 -.178E+04   -.788E+01 -.638E+01 0.178E+04   -.106E+00 -.814E-01 0.322E+01   -.777E-03 -.464E-03 0.120E-02
   -.413E+02 0.107E+02 -.260E+04   0.475E+02 -.107E+02 0.260E+04   -.608E+01 -.131E+00 -.397E+01   0.962E-03 -.689E-03 -.273E-03
   0.413E+02 0.108E+02 -.260E+04   -.475E+02 -.107E+02 0.260E+04   0.609E+01 -.127E+00 -.397E+01   -.984E-03 -.666E-03 -.260E-03
   -.831E-02 0.223E+02 -.202E+04   0.736E-02 -.215E+02 0.203E+04   0.871E-03 -.104E+01 -.166E+01   -.802E-05 -.167E-02 0.226E-02
   -.977E-02 0.549E+02 -.301E+04   0.970E-02 -.543E+02 0.303E+04   0.168E-03 -.114E+01 -.200E+02   -.139E-04 -.129E-02 -.271E-02
   -.596E-01 0.528E-02 0.426E+02   0.166E-11 0.966E-12 -.605E-10   0.412E-01 -.609E-02 -.426E+02   -.265E-03 0.226E-03 0.291E+00

 POSITION                                       TOTAL-FORCE (eV/Angst)
      0.00000      1.48001      8.77173         0.000072      0.007201     -3.758061
      9.75902      0.00000      8.77173         0.000106     -0.000116      3.012282
      3.25301      1.48001     12.02473        -0.000666      0.011106      0.459586
      0.00000      0.00000     12.02473        -0.000027      0.000034     -0.799910
      0.00000      1.48001     15.27774        -0.000050      0.041157      0.574680
      9.75902      0.00000     15.27774         0.005728      0.000079     -0.858338
      3.25308      1.47993     18.46411        -0.046081     -0.034666     -0.143682
      0.00006      0.00008     18.64572        -0.001069     -0.001259     -0.213338
      0.00000      1.48002     21.99272        -0.000069     -0.013147     -0.114104
      9.75903     11.84000     21.63477         0.081290      0.002957     -0.161196
      0.00000      4.44004      8.77173         0.000077     -0.007347     -3.757877
      9.75902      2.96003      8.77173         0.000140      0.000216      2.949745
      3.25301      4.44004     12.02473        -0.000089     -0.010135      0.459599
      0.00000      2.96003     12.02473        -0.000011      0.000283     -0.783186
      0.00000      4.44004     15.27774         0.000021     -0.046285      0.570968
      9.75902      2.96003     15.27774         0.004756      0.000546     -0.859300
      3.25286      4.44013     18.46414        -0.058877     -0.032499     -0.192113
      0.00004      2.95999     18.65118         0.000669     -0.020134     -0.220792
     13.01201      4.44013     21.99249         0.000688     -0.012691     -0.111008
      9.75902      2.95999     21.63850         0.274374     -0.220874     -0.202906
      0.00000      7.40007      8.77173         0.000090      0.007289     -3.757837
      9.75902      5.92005      8.77173        -0.000021      0.000049      3.012538
      3.25301      7.40007     12.02473        -0.000073      0.010168      0.459726
      0.00000      5.92005     12.02473        -0.000007      0.000012     -0.800462
      0.00000      7.40007     15.27774        -0.000031      0.046183      0.570958
      9.75902      5.92005     15.27774         0.003793     -0.000002     -0.868855
      3.25277      7.39995     18.46412        -0.057828      0.032936     -0.191800
     13.01138      5.92002     18.64552        -0.005855      0.000752     -0.218956
      0.00005      7.39995     21.99264        -0.001073      0.014512     -0.113812
      9.75902      5.91997     21.63476         0.280037      0.002966     -0.331175
      0.00000     10.36009      8.77173         0.000071     -0.007143     -3.758064
      9.75902      8.88008      8.77173         0.000126     -0.000251      2.949891
      3.25301     10.36009     12.02473        -0.000678     -0.010993      0.459589
      0.00000      8.88008     12.02473        -0.000046     -0.000288     -0.783254
      0.00000     10.36009     15.27774        -0.000037     -0.041029      0.574709
      9.75902      8.88008     15.27774         0.004736     -0.000603     -0.858974
      3.25292     10.36022     18.46412        -0.044778      0.034000     -0.143456
     13.01201      8.88010     18.65116         0.001320      0.020301     -0.218681
     13.01199     10.36019     21.99266         0.001513      0.009512     -0.113448
      9.75902      8.88002     21.63846         0.275487      0.219973     -0.202281
      6.50601      1.48001      8.77173         0.000085      0.007867     -3.758255
      3.25301      0.00000      8.77173        -0.000058     -0.000005      3.012368
      9.75902      1.48001     12.02473         0.000652      0.011039      0.459619
      6.50601      0.00000     12.02473         0.000096      0.000020     -0.805497
      6.50601      1.48001     15.27774         0.000002      0.054514      0.552175
      3.25301      0.00000     15.27774        -0.005486      0.000156     -0.858116
      9.75893      1.47991     18.46413         0.047570     -0.034115     -0.144050
      6.50594     11.84001     18.64565         0.000677      0.001238     -0.353314
      6.50601      1.47995     21.99263         0.000290     -0.273325     -0.232600
      3.25299      0.00010     21.63478        -0.080924     -0.003388     -0.160415
      6.50601      4.44004      8.77173         0.000121     -0.006582     -3.757114
      3.25301      2.96003      8.77173        -0.000143      0.000314      2.949861
      9.75902      4.44004     12.02473         0.000076     -0.010168      0.459597
      6.50601      2.96003     12.02473         0.000093      0.001961     -0.784800
      6.50601      4.44004     15.27774         0.000081     -0.047381      0.554653
      3.25301      2.96003     15.27774        -0.004656      0.000632     -0.859159
      9.75886      4.44015     18.46407         0.053201     -0.032368     -0.190973
      6.50610      2.96005     18.65112         0.001505      0.023200     -0.578319
      6.50602      4.44012     21.99266        -0.000512     -1.001622     -1.605822
      3.25300      2.96007     21.63850        -0.274033     -0.220385     -0.202369
[...]
      5.23428     10.36009     12.02473        -0.424068     -0.004831      0.067150
      9.75902      8.88008     10.75301         0.000217      0.000334     -1.329763
      9.75902      8.88008     13.29646        -0.000237      0.000178     -0.036250
      4.52473     10.36009     15.27774        -0.448762     -0.006524      0.119621
      8.48729     10.36009     15.27774         0.449049     -0.006498      0.119694
      6.50601      8.88008     14.00601         0.000099      0.005606     -0.015154
      6.50601      8.88008     16.54947        -0.000004      0.002838      0.110029
      7.80709     10.35971     18.54671        -0.065900     -0.017325      0.065503
      5.20496     10.35976     18.54671         0.066323     -0.017641      0.065697
      9.75905      8.88006     17.27467        -0.009434     -0.019798      0.078372
      9.75904      8.88008     19.82457        -0.025314     -0.024869      0.257745
      4.47149     10.36016     21.95371         0.114674     -0.042459      0.051285
      8.54059     10.36017     21.95366        -0.114844     -0.042789      0.051893
      6.50601      8.88009     20.51333        -0.000012     -0.270765      0.591092
      6.50602      8.88009     23.06229         0.000164     -0.579688      0.400234
    total drift:                               -0.018669     -0.000585      0.255256

  FREE ENERGIE OF THE ION-ELECTRON SYSTEM (eV)
  free  energy   TOTEN  =     -2756.67613579 eV

  energy  without entropy=    -2756.64737614  energy(sigma->0) =    -2756.66175597

 total charge

# of ion       s       p       d       tot
    1        2.215   6.297   1.686  10.198
    2        2.198   6.247   1.663  10.108
    3        2.217   6.298   1.640  10.155
    4        2.218   6.300   1.644  10.162
    5        2.217   6.300   1.646  10.162
    6        2.215   6.296   1.642  10.153
    7        2.221   6.304   1.670  10.195
    8        2.217   6.290   1.647  10.153
    9        2.216   6.286   1.717  10.220
   10        2.228   6.282   1.744  10.255
   11        2.215   6.297   1.686  10.198
   12        2.198   6.247   1.663  10.109
   13        2.217   6.298   1.640  10.155
   14        2.218   6.300   1.644  10.162
   15        2.217   6.300   1.646  10.162
   16        2.215   6.296   1.642  10.153
   17        2.221   6.304   1.670  10.195
   18        2.217   6.290   1.649  10.156
   19        2.217   6.286   1.717  10.220
   20        2.228   6.281   1.745  10.255
   21        2.215   6.297   1.686  10.198
   22        2.198   6.247   1.663  10.108
   23        2.217   6.298   1.640  10.155
   24        2.218   6.300   1.644  10.162
   25        2.217   6.300   1.646  10.162
   26        2.215   6.296   1.642  10.153
   27        2.221   6.304   1.670  10.195
   28        2.217   6.290   1.647  10.153
   29        2.217   6.286   1.717  10.220
   30        2.228   6.282   1.751  10.261
   31        2.215   6.297   1.686  10.198
   32        2.198   6.247   1.663  10.109
   33        2.217   6.298   1.640  10.155
   34        2.218   6.300   1.644  10.162
   35        2.217   6.300   1.646  10.162
   36        2.215   6.296   1.642  10.153
   37        2.221   6.304   1.670  10.195
   38        2.217   6.290   1.649  10.156
   39        2.216   6.286   1.717  10.220
   40        2.228   6.281   1.745  10.255
   41        2.215   6.297   1.686  10.198
   42        2.198   6.247   1.663  10.108
   43        2.217   6.298   1.640  10.155
   44        2.218   6.300   1.644  10.162
   45        2.217   6.300   1.646  10.163
   46        2.215   6.296   1.642  10.153
   47        2.221   6.304   1.670  10.195
   48        2.217   6.290   1.646  10.153
   49        2.217   6.286   1.711  10.214
   50        2.228   6.282   1.744  10.255
   51        2.215   6.297   1.686  10.198
   52        2.198   6.247   1.663  10.109
   53        2.217   6.298   1.640  10.155
   54        2.218   6.300   1.644  10.162
   55        2.217   6.300   1.647  10.163
   56        2.215   6.296   1.642  10.153
   57        2.221   6.304   1.670  10.195
   58        2.216   6.289   1.653  10.158
   59        2.189   6.217   1.712  10.118
   60        2.228   6.281   1.745  10.255
[...]
  225        1.578   3.531   0.000   5.109
  226        1.577   3.519   0.000   5.096
  227        1.578   3.527   0.000   5.106
  228        1.579   3.529   0.000   5.108
  229        1.579   3.529   0.000   5.108
  230        1.579   3.533   0.000   5.111
  231        1.577   3.507   0.000   5.084
  232        1.577   3.527   0.000   5.104
  233        1.577   3.527   0.000   5.104
  234        1.582   3.548   0.000   5.130
  235        1.580   3.544   0.000   5.124
  236        1.576   3.521   0.000   5.097
  237        1.576   3.521   0.000   5.097
  238        1.577   3.494   0.000   5.071
  239        1.593   3.475   0.000   5.068
tot        428.3541062.248 133.5991624.201